User:   ubuntu@ip-172-31-33-15
Date:   Mon Oct 26 00:52:15 2020
Arch:   x86_64
Pid:    7492
Python: 3.8.3
gpaw:   /home/ubuntu/anaconda3/lib/python3.8/site-packages/gpaw
_gpaw:  /home/ubuntu/anaconda3/lib/python3.8/site-packages/
        _gpaw.cpython-38-x86_64-linux-gnu.so
ase:    /home/ubuntu/anaconda3/lib/python3.8/site-packages/ase (version 3.20.1)
numpy:  /home/ubuntu/anaconda3/lib/python3.8/site-packages/numpy (version 1.18.5)
scipy:  /home/ubuntu/anaconda3/lib/python3.8/site-packages/scipy (version 1.5.0)
units:  Angstrom and eV
cores: 4
OMP_NUM_THREADS: 1

Input parameters:
  convergence: {bands: CBM+2.0,
                density: 0.0001,
                eigenstates: 4e-08,
                energy: 0.0005,
                forces: inf}
  kpts: {gamma: True,
         size: (5, 5, 5)}
  mode: {ecut: 340.0,
         gammacentered: False,
         name: pw}
  occupations: {fixmagmom: False,
                name: fermi-dirac,
                width: 0.05}
  xc: PBE

System changes: positions, numbers, cell, pbc, initial_charges, initial_magmoms

Initialize ...

C-setup:
  name: Carbon
  id: 4aa54d4b901d75f77cc0ea3eec22967b
  Z: 6.0
  valence: 4
  core: 2
  charge: 0.0
  file: /home/ubuntu/gpaw_dataset/gpaw-setups-0.9.20000/C.PBE.gz
  compensation charges: gauss, rc=0.20, lmax=2
  cutoffs: 1.14(filt), 1.14(core),
  valence states:
                energy  radius
    2s(2.00)   -13.751   0.635
    2p(2.00)    -5.284   0.635
    *s          13.461   0.635
    *p          21.927   0.635
    *d           0.000   0.635

  Using partial waves for C as LCAO basis

Cs-setup:
  name: Caesium
  id: fa822afd343f47335d508b9ee4f394c3
  Z: 55.0
  valence: 9
  core: 46
  charge: 0.0
  file: /home/ubuntu/gpaw_dataset/gpaw-setups-0.9.20000/Cs.PBE.gz
  compensation charges: gauss, rc=0.33, lmax=2
  cutoffs: 2.06(filt), 2.51(core),
  valence states:
                energy  radius
    5s(2.00)   -26.706   1.164
    6s(1.00)    -2.085   1.164
    5p(6.00)   -13.523   1.058
    *p          13.688   1.058
    *d           0.000   1.058

[...]

H-setup:
  name: Hydrogen
  id: d65de229564ff8ea4db303e23b6d1ecf
  Z: 1.0
  valence: 1
  core: 0
  charge: 0.0
  file: /home/ubuntu/gpaw_dataset/gpaw-setups-0.9.20000/H.PBE.gz
  compensation charges: gauss, rc=0.15, lmax=2
  cutoffs: 0.85(filt), 0.53(core),
  valence states:
                energy  radius
    1s(1.00)    -6.494   0.476
    *s          20.717   0.476
    *p           0.000   0.476

[...]

I-setup:
  name: Iodine
  id: 91405a398e4dfe788ff04f57531604ec
  Z: 53.0
  valence: 7
  core: 46
  charge: 0.0
  file: /home/ubuntu/gpaw_dataset/gpaw-setups-0.9.20000/I.PBE.gz
  compensation charges: gauss, rc=0.37, lmax=2
  cutoffs: 2.06(filt), 2.90(core),
  valence states:
                energy  radius
    5s(2.00)   -17.382   1.164
    5p(5.00)    -7.088   1.164
    *s           9.829   1.164
    *p          20.123   1.164
    *d           0.000   1.164

[...]

N-setup:
  name: Nitrogen
  id: f7500608b86eaa90eef8b1d9a670dc53
  Z: 7.0
  valence: 5
  core: 2
  charge: 0.0
  file: /home/ubuntu/gpaw_dataset/gpaw-setups-0.9.20000/N.PBE.gz
  compensation charges: gauss, rc=0.18, lmax=2
  cutoffs: 1.11(filt), 0.96(core),
  valence states:
                energy  radius
    2s(2.00)   -18.583   0.603
    2p(3.00)    -7.089   0.529
    *s           8.629   0.603
    *p          20.123   0.529
    *d           0.000   0.577

[...]

Pb-setup:
  name: Lead
  id: 66e73b13d76dc837202bcdb13fee58e6
  Z: 82.0
  valence: 14
  core: 68
  charge: 0.0
  file: /home/ubuntu/gpaw_dataset/gpaw-setups-0.9.20000/Pb.PBE.gz
  compensation charges: gauss, rc=0.38, lmax=2
  cutoffs: 2.36(filt), 2.43(core),
  valence states:
                energy  radius
    6s(2.00)   -11.969   1.259
    6p(2.00)    -3.506   1.275
    5d(10.00)   -21.211   1.217
    *s          15.243   1.259
    *p          23.705   1.275
    *d           6.001   1.217

  Using partial waves for Pb as LCAO basis

Reference energy: -9631096.087487

Spin-paired calculation

Convergence criteria:
  Maximum total energy change: 0.0005 eV / electron
  Maximum integral of absolute density change: 0.0001 electrons
  Maximum integral of absolute eigenstate change: 4e-08 eV^2
  Maximum number of iterations: 333

Symmetries present (total): 2

  ( 1  0  0)  ( 1  0  0)
  ( 0  1  0)  ( 0  1  0)
  ( 0  0  1)  ( 0  0 -1)

125 k-points: 5 x 5 x 5 Monkhorst-Pack grid
39 k-points in the irreducible part of the Brillouin zone
       k-points in crystal coordinates                weights
   0:     0.00000000    0.00000000    0.00000000          1/125
   1:     0.00000000    0.00000000    0.20000000          2/125
   2:     0.00000000    0.00000000    0.40000000          2/125
   3:     0.00000000    0.20000000    0.00000000          2/125
   4:     0.00000000    0.20000000    0.20000000          4/125
   5:     0.00000000    0.20000000    0.40000000          4/125
   6:     0.00000000    0.40000000    0.00000000          2/125
   7:     0.00000000    0.40000000    0.20000000          4/125
   8:     0.00000000    0.40000000    0.40000000          4/125
   9:     0.20000000   -0.40000000    0.00000000          2/125
          ...
  38:     0.40000000    0.40000000    0.40000000          4/125

Wave functions: Plane wave expansion
  Cutoff energy: 340.000 eV
  Number of coefficients (min, max): 29711, 29843
  Pulay-stress correction: 0.000000 eV/Ang^3 (de/decut=0.000000)
  Using FFTW library
  ScaLapack parameters: grid=1x1, blocksize=None
  Wavefunction extrapolation:
    Improved wavefunction reuse through dual PAW basis

  Fermi-Dirac: width=0.0500 eV

Eigensolver
   Davidson(niter=2, smin=None, normalize=True)

Densities:
  Coarse grid: 56*56*56 grid
  Fine grid: 112*112*112 grid
  Total Charge: 0.000000

Density mixing:
  Method: separate
  Backend: pulay
  Linear mixing parameter: 0.05
  Mixing with 5 old densities
  Damping of long wave oscillations: 50

Hamiltonian:
  XC and Coulomb potentials evaluated on a 112*112*112 grid
  Using the PBE Exchange-Correlation functional

XC parameters: PBE with 2 nearest neighbor stencil

Total number of cores used: 4
Parallelization over k-points: 4

Number of atoms: 82
Number of atomic orbitals: 280
Number of bands in calculation: 252
Number of valence electrons: 412
Bands to converge: CBM+2.0

... initialized

Initializing position-dependent things.

Density initialized from atomic densities
Creating initial wave functions:
  252 bands from LCAO basis set

    /    |                     H        |
   /     |     Cs         HN   C N H    |
  /      |                H      H      |
 *   I   |          I                   |
 |       |  H              H            |
 |    HIN| C N  H     HN   C N H        |
 |     H |   H        H      H          |
 I   Pb  |   I  I   Pb      I           |
 |       |                     H        |
 | I     |     Cs I       HN   C N H    |
 |       |                H      H      |
 Pb  I   I------Pb--I---I---------------.
 |      /   H              H           /
 |    HIN  C N  H     HN   C N H      /
 |    /H     H        H      H       /
 I   Pb      I  I   Pb      I       /
 | /              I               /
 Pb------I------Pb------I-------*

Positions:
   0 C      9.593107   10.016092    9.593100    ( 0.0000,  0.0000,  0.0000)
   1 C      9.593107    3.620692    9.593100    ( 0.0000,  0.0000,  0.0000)
   2 C      3.197707    3.620692    9.593100    ( 0.0000,  0.0000,  0.0000)
   3 C      9.593107   10.016092    3.197700    ( 0.0000,  0.0000,  0.0000)
   4 C      9.593107    3.620692    3.197700    ( 0.0000,  0.0000,  0.0000)
   5 C      3.197707    3.620692    3.197700    ( 0.0000,  0.0000,  0.0000)
   6 Cs     3.197700    9.593100    9.593100    ( 0.0000,  0.0000,  0.0000)
   7 Cs     3.197700    9.593100    3.197700    ( 0.0000,  0.0000,  0.0000)
   8 H      9.593101   11.136361    9.593100    ( 0.0000,  0.0000,  0.0000)
   9 H     11.587071   10.015427    9.593100    ( 0.0000,  0.0000,  0.0000)
  10 H     10.884812    8.371259    9.593100    ( 0.0000,  0.0000,  0.0000)
  11 H      8.301390    8.371259    9.593100    ( 0.0000,  0.0000,  0.0000)
  12 H      7.599130   10.015427    9.593100    ( 0.0000,  0.0000,  0.0000)
  13 H      9.593101    4.740961    9.593100    ( 0.0000,  0.0000,  0.0000)
  14 H     11.587071    3.620027    9.593100    ( 0.0000,  0.0000,  0.0000)
  15 H     10.884812    1.975859    9.593100    ( 0.0000,  0.0000,  0.0000)
  16 H      8.301390    1.975859    9.593100    ( 0.0000,  0.0000,  0.0000)
  17 H      7.599130    3.620027    9.593100    ( 0.0000,  0.0000,  0.0000)
  18 H      3.197701    4.740961    9.593100    ( 0.0000,  0.0000,  0.0000)
  19 H      5.191671    3.620027    9.593100    ( 0.0000,  0.0000,  0.0000)
  20 H      4.489412    1.975859    9.593100    ( 0.0000,  0.0000,  0.0000)
  21 H      1.905990    1.975859    9.593100    ( 0.0000,  0.0000,  0.0000)
  22 H      1.203730    3.620027    9.593100    ( 0.0000,  0.0000,  0.0000)
  23 H      9.593101   11.136361    3.197700    ( 0.0000,  0.0000,  0.0000)
  24 H     11.587071   10.015427    3.197700    ( 0.0000,  0.0000,  0.0000)
  25 H     10.884812    8.371259    3.197700    ( 0.0000,  0.0000,  0.0000)
  26 H      8.301390    8.371259    3.197700    ( 0.0000,  0.0000,  0.0000)
  27 H      7.599130   10.015427    3.197700    ( 0.0000,  0.0000,  0.0000)
  28 H      9.593101    4.740961    3.197700    ( 0.0000,  0.0000,  0.0000)
  29 H     11.587071    3.620027    3.197700    ( 0.0000,  0.0000,  0.0000)
  30 H     10.884812    1.975859    3.197700    ( 0.0000,  0.0000,  0.0000)
  31 H      8.301390    1.975859    3.197700    ( 0.0000,  0.0000,  0.0000)
  32 H      7.599130    3.620027    3.197700    ( 0.0000,  0.0000,  0.0000)
  33 H      3.197701    4.740961    3.197700    ( 0.0000,  0.0000,  0.0000)
  34 H      5.191671    3.620027    3.197700    ( 0.0000,  0.0000,  0.0000)
  35 H      4.489412    1.975859    3.197700    ( 0.0000,  0.0000,  0.0000)
  36 H      1.905990    1.975859    3.197700    ( 0.0000,  0.0000,  0.0000)
  37 H      1.203730    3.620027    3.197700    ( 0.0000,  0.0000,  0.0000)
  38 I      9.593100    0.000000    0.000000    ( 0.0000,  0.0000,  0.0000)
  39 I      3.197700    0.000000    0.000000    ( 0.0000,  0.0000,  0.0000)
  40 I      9.593100    6.395400    0.000000    ( 0.0000,  0.0000,  0.0000)
  41 I      3.197700    6.395400    0.000000    ( 0.0000,  0.0000,  0.0000)
  42 I      9.593100    0.000000    6.395400    ( 0.0000,  0.0000,  0.0000)
  43 I      3.197700    0.000000    6.395400    ( 0.0000,  0.0000,  0.0000)
  44 I      9.593100    6.395400    6.395400    ( 0.0000,  0.0000,  0.0000)
  45 I      3.197700    6.395400    6.395400    ( 0.0000,  0.0000,  0.0000)
  46 I      0.000000    9.593100    0.000000    ( 0.0000,  0.0000,  0.0000)
  47 I      6.395400    9.593100    0.000000    ( 0.0000,  0.0000,  0.0000)
  48 I      0.000000    3.197700    0.000000    ( 0.0000,  0.0000,  0.0000)
  49 I      6.395400    3.197700    0.000000    ( 0.0000,  0.0000,  0.0000)
  50 I      0.000000    9.593100    6.395400    ( 0.0000,  0.0000,  0.0000)
  51 I      6.395400    9.593100    6.395400    ( 0.0000,  0.0000,  0.0000)
  52 I      0.000000    3.197700    6.395400    ( 0.0000,  0.0000,  0.0000)
  53 I      6.395400    3.197700    6.395400    ( 0.0000,  0.0000,  0.0000)
  54 I      0.000000    0.000000    9.593100    ( 0.0000,  0.0000,  0.0000)
  55 I      6.395400    0.000000    9.593100    ( 0.0000,  0.0000,  0.0000)
  56 I      0.000000    6.395400    9.593100    ( 0.0000,  0.0000,  0.0000)
  57 I      6.395400    6.395400    9.593100    ( 0.0000,  0.0000,  0.0000)
  58 I      0.000000    0.000000    3.197700    ( 0.0000,  0.0000,  0.0000)
  59 I      6.395400    0.000000    3.197700    ( 0.0000,  0.0000,  0.0000)
[...]
  67 N      2.035369    3.014088    9.593100    ( 0.0000,  0.0000,  0.0000)
  68 N     10.755420    9.409488    3.197700    ( 0.0000,  0.0000,  0.0000)
  69 N      8.430769    9.409488    3.197700    ( 0.0000,  0.0000,  0.0000)
  70 N     10.755420    3.014088    3.197700    ( 0.0000,  0.0000,  0.0000)
  71 N      8.430769    3.014088    3.197700    ( 0.0000,  0.0000,  0.0000)
  72 N      4.360020    3.014088    3.197700    ( 0.0000,  0.0000,  0.0000)
  73 N      2.035369    3.014088    3.197700    ( 0.0000,  0.0000,  0.0000)
  74 Pb     0.000000    0.000000    0.000000    ( 0.0000,  0.0000,  0.0000)
  75 Pb     6.395400    0.000000    0.000000    ( 0.0000,  0.0000,  0.0000)
  76 Pb     0.000000    6.395400    0.000000    ( 0.0000,  0.0000,  0.0000)
  77 Pb     6.395400    6.395400    0.000000    ( 0.0000,  0.0000,  0.0000)
  78 Pb     0.000000    0.000000    6.395400    ( 0.0000,  0.0000,  0.0000)
  79 Pb     6.395400    0.000000    6.395400    ( 0.0000,  0.0000,  0.0000)
  80 Pb     0.000000    6.395400    6.395400    ( 0.0000,  0.0000,  0.0000)
  81 Pb     6.395400    6.395400    6.395400    ( 0.0000,  0.0000,  0.0000)

Unit cell:
           periodic     x           y           z      points  spacing
  1. axis:    yes   12.790800    0.000000    0.000000    56     0.2284
  2. axis:    yes    0.000000   12.790800    0.000000    56     0.2284
  3. axis:    yes    0.000000    0.000000   12.790800    56     0.2284

  Lengths:  12.790800  12.790800  12.790800
  Angles:   90.000000  90.000000  90.000000

Effective grid spacing dv^(1/3) = 0.2284

                     log10-error:    total        iterations:
           time      wfs    density  energy       poisson
iter:   1  01:07:49                -320.819778
iter:   2  01:18:12  -0.87  -1.04  -319.806974
iter:   3  01:28:50  -1.02  -1.07  -312.931101
iter:   4  01:39:21  -1.14  -1.30  -312.312608
iter:   5  01:50:38  -1.75  -1.50  -312.253027
iter:   6  02:01:37  -1.95  -1.84  -311.887476
iter:   7  02:12:30  -2.12  -2.09  -311.864767
iter:   8  02:23:21  -2.65  -2.10  -311.742643
iter:   9  02:34:13  -3.34  -2.52  -311.725191
iter:  10  02:45:32  -3.78  -2.60  -311.719228
iter:  11  02:56:12  -4.19  -2.91  -311.716970
iter:  12  03:07:03  -4.88  -3.10  -311.716851
iter:  13  03:17:49  -5.29  -3.19  -311.716911
iter:  14  03:28:17  -5.29  -3.30  -311.716930
iter:  15  03:39:52  -5.98  -3.35  -311.716904
iter:  16  03:51:25  -6.09  -3.39  -311.716858
iter:  17  04:03:56  -6.28  -3.57  -311.716867
iter:  18  04:15:57  -6.26  -3.69  -311.716865
iter:  19  04:26:15  -6.82  -4.16  -311.716860
iter:  20  04:37:01  -7.45  -4.23  -311.716856

Converged after 20 iterations.

Dipole moment: (0.978069, -0.202675, -0.000000) |e|*Ang

Energy contributions relative to reference atoms: (reference = -9631096.087487)

Kinetic:       +308.375833
Potential:     -315.419767
External:        +0.000000
XC:            -306.054601
Entropy (-ST):   -0.000000
Local:           +1.381680
Free energy:   -311.716856
Extrapolated:  -311.716856

Showing only first 2 kpts
 Kpt  Band  Eigenvalues  Occupancy
  0   204      1.46607    0.01600
  0   205      1.78475    0.01600
  0   206      3.13567    0.00000
  0   207      3.24831    0.00000

  1   204      1.47256    0.03200
  1   205      1.66503    0.03200
  1   206      3.29209    0.00000
  1   207      3.29615    0.00000

Fermi level: 2.43002

Gap: 1.351 eV
Transition (v -> c):
  (s=0, k=0, n=205, [0.00, 0.00, 0.00]) -> (s=0, k=0, n=206, [0.00, 0.00, 0.00])
Timing:                              incl.     excl.
Hamiltonian:                         9.075     0.006   0.0% |
 Atomic:                             4.804     3.752   0.0% |
  XC Correction:                     1.052     1.052   0.0% |
 Calculate atomic Hamiltonians:      2.729     2.729   0.0% |
 Communicate:                        0.000     0.000   0.0% |
 Initialize Hamiltonian:             0.002     0.002   0.0% |
 Poisson:                            0.008     0.008   0.0% |
 XC 3D grid:                         1.527     1.527   0.0% |
LCAO initialization:               193.490     0.642   0.0% |
 LCAO eigensolver:                   3.378     0.002   0.0% |
  Calculate projections:             0.790     0.790   0.0% |
  DenseAtomicCorrection:             0.605     0.605   0.0% |
  Distribute overlap matrix:         0.005     0.005   0.0% |
  Orbital Layouts:                   0.723     0.723   0.0% |
  Potential matrix:                  1.077     1.077   0.0% |
  Sum over cells:                    0.175     0.175   0.0% |
 LCAO to grid:                     181.592   181.592   1.3% ||
 Set positions (LCAO WFS):           7.879     1.214   0.0% |
  Basic WFS set positions:           0.006     0.006   0.0% |
  Basis functions set positions:     0.001     0.001   0.0% |
  P tci:                             5.297     5.297   0.0% |
  ST tci:                            1.183     1.183   0.0% |
  mktci:                             0.178     0.178   0.0% |
PWDescriptor:                        0.109     0.109   0.0% |
SCF-cycle:                       13258.547  1501.381  11.1% |---|
 Davidson:                       11283.181  4851.872  36.0% |-------------|
  Apply H:                         307.555   300.942   2.2% ||
   HMM T:                            6.613     6.613   0.0% |
  Subspace diag:                  1393.194     0.049   0.0% |
   calc_h_matrix:                  691.169   374.514   2.8% ||
    Apply H:                       316.655   309.733   2.3% ||
     HMM T:                          6.922     6.922   0.1% |
   diagonalize:                      8.305     8.305   0.1% |
   rotate_psi:                     693.671   693.671   5.1% |-|
  calc. matrices:                 3174.544  2560.445  19.0% |-------|
   Apply H:                        614.099   600.498   4.5% |-|
    HMM T:                          13.600    13.600   0.1% |
  diagonalize:                     166.869   166.869   1.2% |
  rotate_psi:                     1389.147  1389.147  10.3% |---|
 Density:                          264.918     0.001   0.0% |
  Atomic density matrices:           3.003     3.003   0.0% |
  Mix:                              55.557    55.557   0.4% |
  Multipole moments:                 0.052     0.052   0.0% |
  Pseudo density:                  206.306   206.022   1.5% ||
   Symmetrize density:               0.284     0.284   0.0% |
 Hamiltonian:                      123.762     0.128   0.0% |
  Atomic:                           45.142    28.041   0.2% |
   XC Correction:                   17.100    17.100   0.1% |
  Calculate atomic Hamiltonians:    53.297    53.297   0.4% |
  Communicate:                       0.019     0.019   0.0% |
  Poisson:                           0.127     0.127   0.0% |
  XC 3D grid:                       25.048    25.048   0.2% |
 Orthonormalize:                    85.305     0.003   0.0% |
  calc_s_matrix:                     9.641     9.641   0.1% |
  inverse-cholesky:                  0.188     0.188   0.0% |
  projections:                      57.916    57.916   0.4% |
  rotate_psi_s:                     17.557    17.557   0.1% |
Set symmetry:                        0.007     0.007   0.0% |
Other:                              24.863    24.863   0.2% |
Total:                                     13486.092 100.0%

Date: Mon Oct 26 04:37:01 2020