User:   ubuntu@ip-172-31-33-15
Date:   Tue Oct 27 01:12:06 2020
Arch:   x86_64
Pid:    1873
Python: 3.8.3
gpaw:   /home/ubuntu/anaconda3/lib/python3.8/site-packages/gpaw
_gpaw:  /home/ubuntu/anaconda3/lib/python3.8/site-packages/
        _gpaw.cpython-38-x86_64-linux-gnu.so
ase:    /home/ubuntu/anaconda3/lib/python3.8/site-packages/ase (version 3.20.1)
numpy:  /home/ubuntu/anaconda3/lib/python3.8/site-packages/numpy (version 1.18.5)
scipy:  /home/ubuntu/anaconda3/lib/python3.8/site-packages/scipy (version 1.5.0)
units:  Angstrom and eV
cores: 4
OMP_NUM_THREADS: 1

Input parameters:
  convergence: {bands: CBM+2.0,
                density: 0.0001,
                eigenstates: 4e-08,
                energy: 0.0005,
                forces: inf}
  kpts: {gamma: True,
         size: (4, 4, 4)}
  mode: {ecut: 600.0,
         gammacentered: False,
         name: pw}
  occupations: {fixmagmom: False,
                name: fermi-dirac,
                width: 0.05}
  xc: PBE

System changes: positions, numbers, cell, pbc, initial_charges, initial_magmoms

Initialize ...

C-setup:
  name: Carbon
  id: 4aa54d4b901d75f77cc0ea3eec22967b
  Z: 6.0
  valence: 4
  core: 2
  charge: 0.0
  file: /home/ubuntu/gpaw_dataset/gpaw-setups-0.9.20000/C.PBE.gz
  compensation charges: gauss, rc=0.20, lmax=2
  cutoffs: 1.14(filt), 1.14(core),
  valence states:
                energy  radius
    2s(2.00)   -13.751   0.635
    2p(2.00)    -5.284   0.635
    *s          13.461   0.635
    *p          21.927   0.635
    *d           0.000   0.635

  Using partial waves for C as LCAO basis

Cs-setup:
  name: Caesium
  id: fa822afd343f47335d508b9ee4f394c3
  Z: 55.0
  valence: 9
  core: 46
  charge: 0.0
  file: /home/ubuntu/gpaw_dataset/gpaw-setups-0.9.20000/Cs.PBE.gz
  compensation charges: gauss, rc=0.33, lmax=2
  cutoffs: 2.06(filt), 2.51(core),
  valence states:
                energy  radius
    5s(2.00)   -26.706   1.164
    6s(1.00)    -2.085   1.164
    5p(6.00)   -13.523   1.058
    *p          13.688   1.058
    *d           0.000   1.058

[...]

H-setup:
  name: Hydrogen
  id: d65de229564ff8ea4db303e23b6d1ecf
  Z: 1.0
  valence: 1
  core: 0
  charge: 0.0
  file: /home/ubuntu/gpaw_dataset/gpaw-setups-0.9.20000/H.PBE.gz
  compensation charges: gauss, rc=0.15, lmax=2
  cutoffs: 0.85(filt), 0.53(core),
  valence states:
                energy  radius
    1s(1.00)    -6.494   0.476
    *s          20.717   0.476
    *p           0.000   0.476

[...]

I-setup:
  name: Iodine
  id: 91405a398e4dfe788ff04f57531604ec
  Z: 53.0
  valence: 7
  core: 46
  charge: 0.0
  file: /home/ubuntu/gpaw_dataset/gpaw-setups-0.9.20000/I.PBE.gz
  compensation charges: gauss, rc=0.37, lmax=2
  cutoffs: 2.06(filt), 2.90(core),
  valence states:
                energy  radius
    5s(2.00)   -17.382   1.164
    5p(5.00)    -7.088   1.164
    *s           9.829   1.164
    *p          20.123   1.164
    *d           0.000   1.164

[...]

N-setup:
  name: Nitrogen
  id: f7500608b86eaa90eef8b1d9a670dc53
  Z: 7.0
  valence: 5
  core: 2
  charge: 0.0
  file: /home/ubuntu/gpaw_dataset/gpaw-setups-0.9.20000/N.PBE.gz
  compensation charges: gauss, rc=0.18, lmax=2
  cutoffs: 1.11(filt), 0.96(core),
  valence states:
                energy  radius
    2s(2.00)   -18.583   0.603
    2p(3.00)    -7.089   0.529
    *s           8.629   0.603
    *p          20.123   0.529
    *d           0.000   0.577

[...]

Pb-setup:
  name: Lead
  id: 66e73b13d76dc837202bcdb13fee58e6
  Z: 82.0
  valence: 14
  core: 68
  charge: 0.0
  file: /home/ubuntu/gpaw_dataset/gpaw-setups-0.9.20000/Pb.PBE.gz
  compensation charges: gauss, rc=0.38, lmax=2
  cutoffs: 2.36(filt), 2.43(core),
  valence states:
                energy  radius
    6s(2.00)   -11.969   1.259
    6p(2.00)    -3.506   1.275
    5d(10.00)   -21.211   1.217
    *s          15.243   1.259
    *p          23.705   1.275
    *d           6.001   1.217

  Using partial waves for Pb as LCAO basis

Reference energy: -9631096.087487

Spin-paired calculation

Convergence criteria:
  Maximum total energy change: 0.0005 eV / electron
  Maximum integral of absolute density change: 0.0001 electrons
  Maximum integral of absolute eigenstate change: 4e-08 eV^2
  Maximum number of iterations: 333

Symmetries present (total): 2

  ( 1  0  0)  ( 1  0  0)
  ( 0  1  0)  ( 0  1  0)
  ( 0  0  1)  ( 0  0 -1)

64 k-points: 4 x 4 x 4 Monkhorst-Pack grid + [1/8,1/8,1/8]
30 k-points in the irreducible part of the Brillouin zone
       k-points in crystal coordinates                weights
   0:     0.00000000    0.00000000    0.00000000          1/64
   1:     0.00000000    0.00000000    0.25000000          2/64
   2:     0.00000000    0.00000000    0.50000000          1/64
   3:     0.00000000    0.25000000    0.00000000          2/64
   4:     0.00000000    0.25000000    0.25000000          4/64
   5:     0.00000000    0.25000000    0.50000000          2/64
   6:     0.00000000    0.50000000    0.00000000          1/64
   7:     0.00000000    0.50000000    0.25000000          2/64
   8:     0.00000000    0.50000000    0.50000000          1/64
   9:     0.25000000   -0.25000000    0.00000000          2/64
          ...
  29:     0.50000000    0.50000000    0.50000000          1/64

Wave functions: Plane wave expansion
  Cutoff energy: 600.000 eV
  Number of coefficients (min, max): 69744, 69940
  Pulay-stress correction: 0.000000 eV/Ang^3 (de/decut=0.000000)
  Using FFTW library
  ScaLapack parameters: grid=1x1, blocksize=None
  Wavefunction extrapolation:
    Improved wavefunction reuse through dual PAW basis

  Fermi-Dirac: width=0.0500 eV

Eigensolver
   Davidson(niter=2, smin=None, normalize=True)

Densities:
  Coarse grid: 75*75*75 grid
  Fine grid: 150*150*150 grid
  Total Charge: 0.000000

Density mixing:
  Method: separate
  Backend: pulay
  Linear mixing parameter: 0.05
  Mixing with 5 old densities
  Damping of long wave oscillations: 50

Hamiltonian:
  XC and Coulomb potentials evaluated on a 150*150*150 grid
  Using the PBE Exchange-Correlation functional

XC parameters: PBE with 2 nearest neighbor stencil

Total number of cores used: 4
Parallelization over k-points: 4

Number of atoms: 82
Number of atomic orbitals: 280
Number of bands in calculation: 252
Number of valence electrons: 412
Bands to converge: CBM+2.0

... initialized

Initializing position-dependent things.

Density initialized from atomic densities
Creating initial wave functions:
  252 bands from LCAO basis set

    /    |                     H        |
   /     |     Cs         HN   C N H    |
  /      |                H      H      |
 *   I   |          I                   |
 |       |  H              H            |
 |    HIN| C N  H     HN   C N H        |
 |     H |   H        H      H          |
 I   Pb  |   I  I   Pb      I           |
 |       |                     H        |
 | I     |     Cs I       HN   C N H    |
 |       |                H      H      |
 Pb  I   I------Pb--I---I---------------.
 |      /   H              H           /
 |    HIN  C N  H     HN   C N H      /
 |    /H     H        H      H       /
 I   Pb      I  I   Pb      I       /
 | /              I               /
 Pb------I------Pb------I-------*

Positions:
   0 C      9.593107   10.016092    9.593100    ( 0.0000,  0.0000,  0.0000)
   1 C      9.593107    3.620692    9.593100    ( 0.0000,  0.0000,  0.0000)
   2 C      3.197707    3.620692    9.593100    ( 0.0000,  0.0000,  0.0000)
   3 C      9.593107   10.016092    3.197700    ( 0.0000,  0.0000,  0.0000)
   4 C      9.593107    3.620692    3.197700    ( 0.0000,  0.0000,  0.0000)
   5 C      3.197707    3.620692    3.197700    ( 0.0000,  0.0000,  0.0000)
   6 Cs     3.197700    9.593100    9.593100    ( 0.0000,  0.0000,  0.0000)
   7 Cs     3.197700    9.593100    3.197700    ( 0.0000,  0.0000,  0.0000)
   8 H      9.593101   11.136361    9.593100    ( 0.0000,  0.0000,  0.0000)
   9 H     11.587071   10.015427    9.593100    ( 0.0000,  0.0000,  0.0000)
  10 H     10.884812    8.371259    9.593100    ( 0.0000,  0.0000,  0.0000)
  11 H      8.301390    8.371259    9.593100    ( 0.0000,  0.0000,  0.0000)
  12 H      7.599130   10.015427    9.593100    ( 0.0000,  0.0000,  0.0000)
  13 H      9.593101    4.740961    9.593100    ( 0.0000,  0.0000,  0.0000)
  14 H     11.587071    3.620027    9.593100    ( 0.0000,  0.0000,  0.0000)
  15 H     10.884812    1.975859    9.593100    ( 0.0000,  0.0000,  0.0000)
  16 H      8.301390    1.975859    9.593100    ( 0.0000,  0.0000,  0.0000)
  17 H      7.599130    3.620027    9.593100    ( 0.0000,  0.0000,  0.0000)
  18 H      3.197701    4.740961    9.593100    ( 0.0000,  0.0000,  0.0000)
  19 H      5.191671    3.620027    9.593100    ( 0.0000,  0.0000,  0.0000)
  20 H      4.489412    1.975859    9.593100    ( 0.0000,  0.0000,  0.0000)
  21 H      1.905990    1.975859    9.593100    ( 0.0000,  0.0000,  0.0000)
  22 H      1.203730    3.620027    9.593100    ( 0.0000,  0.0000,  0.0000)
  23 H      9.593101   11.136361    3.197700    ( 0.0000,  0.0000,  0.0000)
  24 H     11.587071   10.015427    3.197700    ( 0.0000,  0.0000,  0.0000)
  25 H     10.884812    8.371259    3.197700    ( 0.0000,  0.0000,  0.0000)
  26 H      8.301390    8.371259    3.197700    ( 0.0000,  0.0000,  0.0000)
  27 H      7.599130   10.015427    3.197700    ( 0.0000,  0.0000,  0.0000)
  28 H      9.593101    4.740961    3.197700    ( 0.0000,  0.0000,  0.0000)
  29 H     11.587071    3.620027    3.197700    ( 0.0000,  0.0000,  0.0000)
  30 H     10.884812    1.975859    3.197700    ( 0.0000,  0.0000,  0.0000)
  31 H      8.301390    1.975859    3.197700    ( 0.0000,  0.0000,  0.0000)
  32 H      7.599130    3.620027    3.197700    ( 0.0000,  0.0000,  0.0000)
  33 H      3.197701    4.740961    3.197700    ( 0.0000,  0.0000,  0.0000)
  34 H      5.191671    3.620027    3.197700    ( 0.0000,  0.0000,  0.0000)
  35 H      4.489412    1.975859    3.197700    ( 0.0000,  0.0000,  0.0000)
  36 H      1.905990    1.975859    3.197700    ( 0.0000,  0.0000,  0.0000)
  37 H      1.203730    3.620027    3.197700    ( 0.0000,  0.0000,  0.0000)
  38 I      9.593100    0.000000    0.000000    ( 0.0000,  0.0000,  0.0000)
  39 I      3.197700    0.000000    0.000000    ( 0.0000,  0.0000,  0.0000)
  40 I      9.593100    6.395400    0.000000    ( 0.0000,  0.0000,  0.0000)
  41 I      3.197700    6.395400    0.000000    ( 0.0000,  0.0000,  0.0000)
  42 I      9.593100    0.000000    6.395400    ( 0.0000,  0.0000,  0.0000)
  43 I      3.197700    0.000000    6.395400    ( 0.0000,  0.0000,  0.0000)
  44 I      9.593100    6.395400    6.395400    ( 0.0000,  0.0000,  0.0000)
  45 I      3.197700    6.395400    6.395400    ( 0.0000,  0.0000,  0.0000)
  46 I      0.000000    9.593100    0.000000    ( 0.0000,  0.0000,  0.0000)
  47 I      6.395400    9.593100    0.000000    ( 0.0000,  0.0000,  0.0000)
  48 I      0.000000    3.197700    0.000000    ( 0.0000,  0.0000,  0.0000)
  49 I      6.395400    3.197700    0.000000    ( 0.0000,  0.0000,  0.0000)
  50 I      0.000000    9.593100    6.395400    ( 0.0000,  0.0000,  0.0000)
  51 I      6.395400    9.593100    6.395400    ( 0.0000,  0.0000,  0.0000)
  52 I      0.000000    3.197700    6.395400    ( 0.0000,  0.0000,  0.0000)
  53 I      6.395400    3.197700    6.395400    ( 0.0000,  0.0000,  0.0000)
  54 I      0.000000    0.000000    9.593100    ( 0.0000,  0.0000,  0.0000)
  55 I      6.395400    0.000000    9.593100    ( 0.0000,  0.0000,  0.0000)
  56 I      0.000000    6.395400    9.593100    ( 0.0000,  0.0000,  0.0000)
  57 I      6.395400    6.395400    9.593100    ( 0.0000,  0.0000,  0.0000)
  58 I      0.000000    0.000000    3.197700    ( 0.0000,  0.0000,  0.0000)
  59 I      6.395400    0.000000    3.197700    ( 0.0000,  0.0000,  0.0000)
[...]
  67 N      2.035369    3.014088    9.593100    ( 0.0000,  0.0000,  0.0000)
  68 N     10.755420    9.409488    3.197700    ( 0.0000,  0.0000,  0.0000)
  69 N      8.430769    9.409488    3.197700    ( 0.0000,  0.0000,  0.0000)
  70 N     10.755420    3.014088    3.197700    ( 0.0000,  0.0000,  0.0000)
  71 N      8.430769    3.014088    3.197700    ( 0.0000,  0.0000,  0.0000)
  72 N      4.360020    3.014088    3.197700    ( 0.0000,  0.0000,  0.0000)
  73 N      2.035369    3.014088    3.197700    ( 0.0000,  0.0000,  0.0000)
  74 Pb     0.000000    0.000000    0.000000    ( 0.0000,  0.0000,  0.0000)
  75 Pb     6.395400    0.000000    0.000000    ( 0.0000,  0.0000,  0.0000)
  76 Pb     0.000000    6.395400    0.000000    ( 0.0000,  0.0000,  0.0000)
  77 Pb     6.395400    6.395400    0.000000    ( 0.0000,  0.0000,  0.0000)
  78 Pb     0.000000    0.000000    6.395400    ( 0.0000,  0.0000,  0.0000)
  79 Pb     6.395400    0.000000    6.395400    ( 0.0000,  0.0000,  0.0000)
  80 Pb     0.000000    6.395400    6.395400    ( 0.0000,  0.0000,  0.0000)
  81 Pb     6.395400    6.395400    6.395400    ( 0.0000,  0.0000,  0.0000)

Unit cell:
           periodic     x           y           z      points  spacing
  1. axis:    yes   12.790800    0.000000    0.000000    75     0.1705
  2. axis:    yes    0.000000   12.790800    0.000000    75     0.1705
  3. axis:    yes    0.000000    0.000000   12.790800    75     0.1705

  Lengths:  12.790800  12.790800  12.790800
  Angles:   90.000000  90.000000  90.000000

Effective grid spacing dv^(1/3) = 0.1705

                     log10-error:    total        iterations:
           time      wfs    density  energy       poisson
iter:   1  01:39:18                -375.872044
iter:   2  01:58:20  -0.90  -1.02  -373.405337
iter:   3  02:17:15  -0.89  -1.06  -360.989552
iter:   4  02:36:12  -1.59  -1.35  -360.822084
iter:   5  02:55:01  -1.58  -1.39  -362.237433
iter:   6  03:14:59  -1.46  -1.64  -360.686899
iter:   7  03:33:49  -2.14  -1.90  -360.411577
iter:   8  03:52:50  -2.84  -2.04  -360.332707
iter:   9  04:11:41  -3.55  -2.51  -360.318853
iter:  10  04:30:19  -3.66  -2.62  -360.315054
iter:  11  04:48:55  -4.04  -2.89  -360.318380
iter:  12  05:07:30  -4.43  -2.89  -360.314234
iter:  13  05:26:08  -5.08  -3.02  -360.313861
iter:  14  05:44:48  -4.88  -3.08  -360.314458
iter:  15  06:03:24  -5.13  -3.35  -360.314052
iter:  16  06:22:02  -5.64  -3.58  -360.314020
iter:  17  06:40:51  -5.65  -3.63  -360.314009
iter:  18  06:59:33  -6.34  -3.81  -360.313987
iter:  19  07:18:21  -6.07  -3.89  -360.313983
iter:  20  07:37:16  -6.82  -4.00  -360.313975
iter:  21  07:56:26  -7.28  -4.23  -360.313974
iter:  22  08:15:25  -7.54  -4.28  -360.313972

Converged after 22 iterations.

Dipole moment: (0.967545, -0.173310, -0.000000) |e|*Ang

Energy contributions relative to reference atoms: (reference = -9631096.087487)

Kinetic:       +441.155682
Potential:     -480.659524
External:        +0.000000
XC:            -320.183927
Entropy (-ST):   -0.000000
Local:           -0.626204
Free energy:   -360.313972
Extrapolated:  -360.313972

Showing only first 2 kpts
 Kpt  Band  Eigenvalues  Occupancy
  0   204      1.45284    0.03125
  0   205      1.77511    0.03125
  0   206      3.12040    0.00000
  0   207      3.23125    0.00000

  1   204      1.46335    0.06250
  1   205      1.61674    0.06250
  1   206      3.29837    0.00000
  1   207      3.30122    0.00000

Fermi level: 2.42434

Gap: 1.345 eV
Transition (v -> c):
  (s=0, k=0, n=205, [0.00, 0.00, 0.00]) -> (s=0, k=0, n=206, [0.00, 0.00, 0.00])
Timing:                              incl.     excl.
Hamiltonian:                        11.528     0.015   0.0% |
 Atomic:                             3.734     2.973   0.0% |
  XC Correction:                     0.760     0.760   0.0% |
 Calculate atomic Hamiltonians:      5.166     5.166   0.0% |
 Communicate:                        0.000     0.000   0.0% |
 Initialize Hamiltonian:             0.000     0.000   0.0% |
 Poisson:                            0.014     0.014   0.0% |
 XC 3D grid:                         2.599     2.599   0.0% |
LCAO initialization:               282.813     0.641   0.0% |
 LCAO eigensolver:                   4.234     0.002   0.0% |
  Calculate projections:             0.620     0.620   0.0% |
  DenseAtomicCorrection:             0.473     0.473   0.0% |
  Distribute overlap matrix:         0.005     0.005   0.0% |
  Orbital Layouts:                   0.588     0.588   0.0% |
  Potential matrix:                  2.410     2.410   0.0% |
  Sum over cells:                    0.138     0.138   0.0% |
 LCAO to grid:                     271.798   271.798   1.1% |
 Set positions (LCAO WFS):           6.140     1.049   0.0% |
  Basic WFS set positions:           0.006     0.006   0.0% |
  Basis functions set positions:     0.001     0.001   0.0% |
  P tci:                             3.916     3.916   0.0% |
  ST tci:                            1.005     1.005   0.0% |
  mktci:                             0.164     0.164   0.0% |
PWDescriptor:                        0.242     0.242   0.0% |
SCF-cycle:                       25057.251  3029.765  11.9% |----|
 Davidson:                       21027.649  8724.737  34.4% |-------------|
  Apply H:                         803.100   790.790   3.1% ||
   HMM T:                           12.310    12.310   0.0% |
  Subspace diag:                  2717.428     0.041   0.0% |
   calc_h_matrix:                 1476.076   656.654   2.6% ||
    Apply H:                       819.422   806.615   3.2% ||
     HMM T:                         12.806    12.806   0.1% |
   diagonalize:                      6.501     6.501   0.0% |
   rotate_psi:                    1234.810  1234.810   4.9% |-|
  calc. matrices:                 6158.423  4540.369  17.9% |------|
   Apply H:                       1618.054  1592.824   6.3% |--|
    HMM T:                          25.231    25.231   0.1% |
  diagonalize:                     129.182   129.182   0.5% |
  rotate_psi:                     2494.779  2494.779   9.8% |---|
 Density:                          629.751     0.001   0.0% |
  Atomic density matrices:           1.443     1.443   0.0% |
  Mix:                             131.247   131.247   0.5% |
  Multipole moments:                 0.043     0.043   0.0% |
  Pseudo density:                  497.017   496.365   2.0% ||
   Symmetrize density:               0.652     0.652   0.0% |
 Hamiltonian:                      225.923     0.308   0.0% |
  Atomic:                           44.906    29.074   0.1% |
   XC Correction:                   15.832    15.832   0.1% |
  Calculate atomic Hamiltonians:   125.249   125.249   0.5% |
  Communicate:                       0.002     0.002   0.0% |
  Poisson:                           0.292     0.292   0.0% |
  XC 3D grid:                       55.167    55.167   0.2% |
 Orthonormalize:                   144.163     0.002   0.0% |
  calc_s_matrix:                    16.901    16.901   0.1% |
  inverse-cholesky:                  0.150     0.150   0.0% |
  projections:                      98.508    98.508   0.4% |
  rotate_psi_s:                     28.603    28.603   0.1% |
Set symmetry:                        0.004     0.004   0.0% |
Other:                              47.683    47.683   0.2% |
Total:                                     25399.521 100.0%

Date: Tue Oct 27 08:15:26 2020