User:   ubuntu@ip-172-31-71-9
Date:   Wed Oct 28 02:12:20 2020
Arch:   x86_64
Pid:    7738
Python: 3.8.3
gpaw:   /home/ubuntu/anaconda3/lib/python3.8/site-packages/gpaw
_gpaw:  /home/ubuntu/anaconda3/lib/python3.8/site-packages/
        _gpaw.cpython-38-x86_64-linux-gnu.so
ase:    /home/ubuntu/anaconda3/lib/python3.8/site-packages/ase (version 3.20.1)
numpy:  /home/ubuntu/anaconda3/lib/python3.8/site-packages/numpy (version 1.18.5)
scipy:  /home/ubuntu/anaconda3/lib/python3.8/site-packages/scipy (version 1.5.0)
units:  Angstrom and eV
cores: 8
OMP_NUM_THREADS: 1

Input parameters:
  convergence: {bands: CBM+2.0,
                density: 0.0001,
                eigenstates: 4e-08,
                energy: 0.0005,
                forces: inf}
  kpts: {gamma: True,
         size: (4, 4, 4)}
  mode: {ecut: 800.0,
         gammacentered: False,
         name: pw}
  occupations: {fixmagmom: False,
                name: fermi-dirac,
                width: 0.05}
  xc: PBE

System changes: positions, numbers, cell, pbc, initial_charges, initial_magmoms

Initialize ...

C-setup:
  name: Carbon
  id: 4aa54d4b901d75f77cc0ea3eec22967b
  Z: 6.0
  valence: 4
  core: 2
  charge: 0.0
  file: /home/ubuntu/gpaw_dataset/gpaw-setups-0.9.20000/C.PBE.gz
  compensation charges: gauss, rc=0.20, lmax=2
  cutoffs: 1.14(filt), 1.14(core),
  valence states:
                energy  radius
    2s(2.00)   -13.751   0.635
    2p(2.00)    -5.284   0.635
    *s          13.461   0.635
    *p          21.927   0.635
    *d           0.000   0.635

  Using partial waves for C as LCAO basis

Cs-setup:
  name: Caesium
  id: fa822afd343f47335d508b9ee4f394c3
  Z: 55.0
  valence: 9
  core: 46
  charge: 0.0
  file: /home/ubuntu/gpaw_dataset/gpaw-setups-0.9.20000/Cs.PBE.gz
  compensation charges: gauss, rc=0.33, lmax=2
  cutoffs: 2.06(filt), 2.51(core),
  valence states:
                energy  radius
    5s(2.00)   -26.706   1.164
    6s(1.00)    -2.085   1.164
    5p(6.00)   -13.523   1.058
    *p          13.688   1.058
    *d           0.000   1.058

[...]

H-setup:
  name: Hydrogen
  id: d65de229564ff8ea4db303e23b6d1ecf
  Z: 1.0
  valence: 1
  core: 0
  charge: 0.0
  file: /home/ubuntu/gpaw_dataset/gpaw-setups-0.9.20000/H.PBE.gz
  compensation charges: gauss, rc=0.15, lmax=2
  cutoffs: 0.85(filt), 0.53(core),
  valence states:
                energy  radius
    1s(1.00)    -6.494   0.476
    *s          20.717   0.476
    *p           0.000   0.476

[...]

I-setup:
  name: Iodine
  id: 91405a398e4dfe788ff04f57531604ec
  Z: 53.0
  valence: 7
  core: 46
  charge: 0.0
  file: /home/ubuntu/gpaw_dataset/gpaw-setups-0.9.20000/I.PBE.gz
  compensation charges: gauss, rc=0.37, lmax=2
  cutoffs: 2.06(filt), 2.90(core),
  valence states:
                energy  radius
    5s(2.00)   -17.382   1.164
    5p(5.00)    -7.088   1.164
    *s           9.829   1.164
    *p          20.123   1.164
    *d           0.000   1.164

[...]

N-setup:
  name: Nitrogen
  id: f7500608b86eaa90eef8b1d9a670dc53
  Z: 7.0
  valence: 5
  core: 2
  charge: 0.0
  file: /home/ubuntu/gpaw_dataset/gpaw-setups-0.9.20000/N.PBE.gz
  compensation charges: gauss, rc=0.18, lmax=2
  cutoffs: 1.11(filt), 0.96(core),
  valence states:
                energy  radius
    2s(2.00)   -18.583   0.603
    2p(3.00)    -7.089   0.529
    *s           8.629   0.603
    *p          20.123   0.529
    *d           0.000   0.577

[...]

Pb-setup:
  name: Lead
  id: 66e73b13d76dc837202bcdb13fee58e6
  Z: 82.0
  valence: 14
  core: 68
  charge: 0.0
  file: /home/ubuntu/gpaw_dataset/gpaw-setups-0.9.20000/Pb.PBE.gz
  compensation charges: gauss, rc=0.38, lmax=2
  cutoffs: 2.36(filt), 2.43(core),
  valence states:
                energy  radius
    6s(2.00)   -11.969   1.259
    6p(2.00)    -3.506   1.275
    5d(10.00)   -21.211   1.217
    *s          15.243   1.259
    *p          23.705   1.275
    *d           6.001   1.217

  Using partial waves for Pb as LCAO basis

Reference energy: -9631096.087487

Spin-paired calculation

Convergence criteria:
  Maximum total energy change: 0.0005 eV / electron
  Maximum integral of absolute density change: 0.0001 electrons
  Maximum integral of absolute eigenstate change: 4e-08 eV^2
  Maximum number of iterations: 333

Symmetries present (total): 2

  ( 1  0  0)  ( 1  0  0)
  ( 0  1  0)  ( 0  1  0)
  ( 0  0  1)  ( 0  0 -1)

64 k-points: 4 x 4 x 4 Monkhorst-Pack grid + [1/8,1/8,1/8]
30 k-points in the irreducible part of the Brillouin zone
       k-points in crystal coordinates                weights
   0:     0.00000000    0.00000000    0.00000000          1/64
   1:     0.00000000    0.00000000    0.25000000          2/64
   2:     0.00000000    0.00000000    0.50000000          1/64
   3:     0.00000000    0.25000000    0.00000000          2/64
   4:     0.00000000    0.25000000    0.25000000          4/64
   5:     0.00000000    0.25000000    0.50000000          2/64
   6:     0.00000000    0.50000000    0.00000000          1/64
   7:     0.00000000    0.50000000    0.25000000          2/64
   8:     0.00000000    0.50000000    0.50000000          1/64
   9:     0.25000000   -0.25000000    0.00000000          2/64
          ...
  29:     0.50000000    0.50000000    0.50000000          1/64

Wave functions: Plane wave expansion
  Cutoff energy: 800.000 eV
  Number of coefficients (min, max): 107392, 107783
  Pulay-stress correction: 0.000000 eV/Ang^3 (de/decut=0.000000)
  Using FFTW library
  ScaLapack parameters: grid=1x1, blocksize=None
  Wavefunction extrapolation:
    Improved wavefunction reuse through dual PAW basis

  Fermi-Dirac: width=0.0500 eV

Eigensolver
   Davidson(niter=2, smin=None, normalize=True)

Densities:
  Coarse grid: 84*84*84 grid
  Fine grid: 168*168*168 grid
  Total Charge: 0.000000

Density mixing:
  Method: separate
  Backend: pulay
  Linear mixing parameter: 0.05
  Mixing with 5 old densities
  Damping of long wave oscillations: 50

Hamiltonian:
  XC and Coulomb potentials evaluated on a 168*168*168 grid
  Using the PBE Exchange-Correlation functional

XC parameters: PBE with 2 nearest neighbor stencil

Total number of cores used: 8
Parallelization over k-points: 8

Number of atoms: 82
Number of atomic orbitals: 280
Number of bands in calculation: 252
Number of valence electrons: 412
Bands to converge: CBM+2.0

... initialized

Initializing position-dependent things.

Density initialized from atomic densities
Creating initial wave functions:
  252 bands from LCAO basis set

    /    |                     H        |
   /     |     Cs         HN   C N H    |
  /      |                H      H      |
 *   I   |          I                   |
 |       |  H              H            |
 |    HIN| C N  H     HN   C N H        |
 |     H |   H        H      H          |
 I   Pb  |   I  I   Pb      I           |
 |       |                     H        |
 | I     |     Cs I       HN   C N H    |
 |       |                H      H      |
 Pb  I   I------Pb--I---I---------------.
 |      /   H              H           /
 |    HIN  C N  H     HN   C N H      /
 |    /H     H        H      H       /
 I   Pb      I  I   Pb      I       /
 | /              I               /
 Pb------I------Pb------I-------*

Positions:
   0 C      9.593107   10.016092    9.593100    ( 0.0000,  0.0000,  0.0000)
   1 C      9.593107    3.620692    9.593100    ( 0.0000,  0.0000,  0.0000)
   2 C      3.197707    3.620692    9.593100    ( 0.0000,  0.0000,  0.0000)
   3 C      9.593107   10.016092    3.197700    ( 0.0000,  0.0000,  0.0000)
   4 C      9.593107    3.620692    3.197700    ( 0.0000,  0.0000,  0.0000)
   5 C      3.197707    3.620692    3.197700    ( 0.0000,  0.0000,  0.0000)
   6 Cs     3.197700    9.593100    9.593100    ( 0.0000,  0.0000,  0.0000)
   7 Cs     3.197700    9.593100    3.197700    ( 0.0000,  0.0000,  0.0000)
   8 H      9.593101   11.136361    9.593100    ( 0.0000,  0.0000,  0.0000)
   9 H     11.587071   10.015427    9.593100    ( 0.0000,  0.0000,  0.0000)
  10 H     10.884812    8.371259    9.593100    ( 0.0000,  0.0000,  0.0000)
  11 H      8.301390    8.371259    9.593100    ( 0.0000,  0.0000,  0.0000)
  12 H      7.599130   10.015427    9.593100    ( 0.0000,  0.0000,  0.0000)
  13 H      9.593101    4.740961    9.593100    ( 0.0000,  0.0000,  0.0000)
  14 H     11.587071    3.620027    9.593100    ( 0.0000,  0.0000,  0.0000)
  15 H     10.884812    1.975859    9.593100    ( 0.0000,  0.0000,  0.0000)
  16 H      8.301390    1.975859    9.593100    ( 0.0000,  0.0000,  0.0000)
  17 H      7.599130    3.620027    9.593100    ( 0.0000,  0.0000,  0.0000)
  18 H      3.197701    4.740961    9.593100    ( 0.0000,  0.0000,  0.0000)
  19 H      5.191671    3.620027    9.593100    ( 0.0000,  0.0000,  0.0000)
  20 H      4.489412    1.975859    9.593100    ( 0.0000,  0.0000,  0.0000)
  21 H      1.905990    1.975859    9.593100    ( 0.0000,  0.0000,  0.0000)
  22 H      1.203730    3.620027    9.593100    ( 0.0000,  0.0000,  0.0000)
  23 H      9.593101   11.136361    3.197700    ( 0.0000,  0.0000,  0.0000)
  24 H     11.587071   10.015427    3.197700    ( 0.0000,  0.0000,  0.0000)
  25 H     10.884812    8.371259    3.197700    ( 0.0000,  0.0000,  0.0000)
  26 H      8.301390    8.371259    3.197700    ( 0.0000,  0.0000,  0.0000)
  27 H      7.599130   10.015427    3.197700    ( 0.0000,  0.0000,  0.0000)
  28 H      9.593101    4.740961    3.197700    ( 0.0000,  0.0000,  0.0000)
  29 H     11.587071    3.620027    3.197700    ( 0.0000,  0.0000,  0.0000)
  30 H     10.884812    1.975859    3.197700    ( 0.0000,  0.0000,  0.0000)
  31 H      8.301390    1.975859    3.197700    ( 0.0000,  0.0000,  0.0000)
  32 H      7.599130    3.620027    3.197700    ( 0.0000,  0.0000,  0.0000)
  33 H      3.197701    4.740961    3.197700    ( 0.0000,  0.0000,  0.0000)
  34 H      5.191671    3.620027    3.197700    ( 0.0000,  0.0000,  0.0000)
  35 H      4.489412    1.975859    3.197700    ( 0.0000,  0.0000,  0.0000)
  36 H      1.905990    1.975859    3.197700    ( 0.0000,  0.0000,  0.0000)
  37 H      1.203730    3.620027    3.197700    ( 0.0000,  0.0000,  0.0000)
  38 I      9.593100    0.000000    0.000000    ( 0.0000,  0.0000,  0.0000)
  39 I      3.197700    0.000000    0.000000    ( 0.0000,  0.0000,  0.0000)
  40 I      9.593100    6.395400    0.000000    ( 0.0000,  0.0000,  0.0000)
  41 I      3.197700    6.395400    0.000000    ( 0.0000,  0.0000,  0.0000)
  42 I      9.593100    0.000000    6.395400    ( 0.0000,  0.0000,  0.0000)
  43 I      3.197700    0.000000    6.395400    ( 0.0000,  0.0000,  0.0000)
  44 I      9.593100    6.395400    6.395400    ( 0.0000,  0.0000,  0.0000)
  45 I      3.197700    6.395400    6.395400    ( 0.0000,  0.0000,  0.0000)
  46 I      0.000000    9.593100    0.000000    ( 0.0000,  0.0000,  0.0000)
  47 I      6.395400    9.593100    0.000000    ( 0.0000,  0.0000,  0.0000)
  48 I      0.000000    3.197700    0.000000    ( 0.0000,  0.0000,  0.0000)
  49 I      6.395400    3.197700    0.000000    ( 0.0000,  0.0000,  0.0000)
  50 I      0.000000    9.593100    6.395400    ( 0.0000,  0.0000,  0.0000)
  51 I      6.395400    9.593100    6.395400    ( 0.0000,  0.0000,  0.0000)
  52 I      0.000000    3.197700    6.395400    ( 0.0000,  0.0000,  0.0000)
  53 I      6.395400    3.197700    6.395400    ( 0.0000,  0.0000,  0.0000)
  54 I      0.000000    0.000000    9.593100    ( 0.0000,  0.0000,  0.0000)
  55 I      6.395400    0.000000    9.593100    ( 0.0000,  0.0000,  0.0000)
  56 I      0.000000    6.395400    9.593100    ( 0.0000,  0.0000,  0.0000)
  57 I      6.395400    6.395400    9.593100    ( 0.0000,  0.0000,  0.0000)
  58 I      0.000000    0.000000    3.197700    ( 0.0000,  0.0000,  0.0000)
  59 I      6.395400    0.000000    3.197700    ( 0.0000,  0.0000,  0.0000)
[...]
  67 N      2.035369    3.014088    9.593100    ( 0.0000,  0.0000,  0.0000)
  68 N     10.755420    9.409488    3.197700    ( 0.0000,  0.0000,  0.0000)
  69 N      8.430769    9.409488    3.197700    ( 0.0000,  0.0000,  0.0000)
  70 N     10.755420    3.014088    3.197700    ( 0.0000,  0.0000,  0.0000)
  71 N      8.430769    3.014088    3.197700    ( 0.0000,  0.0000,  0.0000)
  72 N      4.360020    3.014088    3.197700    ( 0.0000,  0.0000,  0.0000)
  73 N      2.035369    3.014088    3.197700    ( 0.0000,  0.0000,  0.0000)
  74 Pb     0.000000    0.000000    0.000000    ( 0.0000,  0.0000,  0.0000)
  75 Pb     6.395400    0.000000    0.000000    ( 0.0000,  0.0000,  0.0000)
  76 Pb     0.000000    6.395400    0.000000    ( 0.0000,  0.0000,  0.0000)
  77 Pb     6.395400    6.395400    0.000000    ( 0.0000,  0.0000,  0.0000)
  78 Pb     0.000000    0.000000    6.395400    ( 0.0000,  0.0000,  0.0000)
  79 Pb     6.395400    0.000000    6.395400    ( 0.0000,  0.0000,  0.0000)
  80 Pb     0.000000    6.395400    6.395400    ( 0.0000,  0.0000,  0.0000)
  81 Pb     6.395400    6.395400    6.395400    ( 0.0000,  0.0000,  0.0000)

Unit cell:
           periodic     x           y           z      points  spacing
  1. axis:    yes   12.790800    0.000000    0.000000    84     0.1523
  2. axis:    yes    0.000000   12.790800    0.000000    84     0.1523
  3. axis:    yes    0.000000    0.000000   12.790800    84     0.1523

  Lengths:  12.790800  12.790800  12.790800
  Angles:   90.000000  90.000000  90.000000

Effective grid spacing dv^(1/3) = 0.1523

                     log10-error:    total        iterations:
           time      wfs    density  energy       poisson
iter:   1  02:34:13                -378.434147
iter:   2  02:49:17  -0.89  -1.02  -375.861231
iter:   3  03:04:20  -0.88  -1.06  -363.149715
iter:   4  03:19:22  -1.60  -1.35  -362.996810
iter:   5  03:34:25  -1.52  -1.39  -364.406618
iter:   6  03:49:27  -1.45  -1.64  -362.829064
iter:   7  04:04:29  -2.11  -1.90  -362.549854
iter:   8  04:19:32  -2.80  -2.03  -362.468256
iter:   9  04:34:35  -3.57  -2.51  -362.454987
iter:  10  04:49:39  -3.64  -2.61  -362.450834
iter:  11  05:04:44  -4.14  -2.88  -362.452378
iter:  12  05:19:47  -4.41  -2.94  -362.449421
iter:  13  05:34:51  -4.95  -3.23  -362.449682
iter:  14  05:49:56  -5.52  -3.42  -362.449728
iter:  15  06:05:00  -5.64  -3.50  -362.449677
iter:  16  06:20:04  -6.20  -3.78  -362.449697
iter:  17  06:35:08  -6.60  -4.04  -362.449696
iter:  18  06:50:11  -6.61  -4.13  -362.449696
iter:  19  07:05:15  -7.32  -4.29  -362.449691
iter:  20  07:20:18  -7.72  -4.41  -362.449690

Converged after 20 iterations.

Dipole moment: (0.969935, -0.175233, -0.000000) |e|*Ang

Energy contributions relative to reference atoms: (reference = -9631096.087487)

Kinetic:       +456.117820
Potential:     -498.014551
External:        +0.000000
XC:            -321.138972
Entropy (-ST):   -0.000000
Local:           +0.586013
Free energy:   -362.449690
Extrapolated:  -362.449690

Showing only first 2 kpts
 Kpt  Band  Eigenvalues  Occupancy
  0   204      1.45230    0.03125
  0   205      1.77467    0.03125
  0   206      3.11998    0.00000
  0   207      3.23069    0.00000

  1   204      1.46281    0.06250
  1   205      1.61625    0.06250
  1   206      3.29781    0.00000
  1   207      3.30074    0.00000

Fermi level: 2.42394

Gap: 1.345 eV
Transition (v -> c):
  (s=0, k=0, n=205, [0.00, 0.00, 0.00]) -> (s=0, k=0, n=206, [0.00, 0.00, 0.00])
Timing:                              incl.     excl.
Hamiltonian:                        23.343     0.032   0.0% |
 Atomic:                             9.122     8.625   0.0% |
  XC Correction:                     0.498     0.498   0.0% |
 Calculate atomic Hamiltonians:      9.826     9.826   0.1% |
 Communicate:                        0.000     0.000   0.0% |
 Initialize Hamiltonian:             0.000     0.000   0.0% |
 Poisson:                            0.047     0.047   0.0% |
 XC 3D grid:                         4.314     4.314   0.0% |
LCAO initialization:               170.495     0.637   0.0% |
 LCAO eigensolver:                   4.326     0.001   0.0% |
  Calculate projections:             0.267     0.267   0.0% |
  DenseAtomicCorrection:             0.200     0.200   0.0% |
  Distribute overlap matrix:         0.002     0.002   0.0% |
  Orbital Layouts:                   0.560     0.560   0.0% |
  Potential matrix:                  3.238     3.238   0.0% |
  Sum over cells:                    0.058     0.058   0.0% |
 LCAO to grid:                     161.750   161.750   0.9% |
 Set positions (LCAO WFS):           3.782     0.949   0.0% |
  Basic WFS set positions:           0.006     0.006   0.0% |
  Basis functions set positions:     0.001     0.001   0.0% |
  P tci:                             1.912     1.912   0.0% |
  ST tci:                            0.755     0.755   0.0% |
  mktci:                             0.160     0.160   0.0% |
PWDescriptor:                        0.973     0.973   0.0% |
SCF-cycle:                       18221.086  4390.301  23.8% |---------|
 Davidson:                       12700.956  5208.832  28.2% |----------|
  Apply H:                         534.823   525.028   2.8% ||
   HMM T:                            9.794     9.794   0.1% |
  Subspace diag:                  1679.282     0.017   0.0% |
   calc_h_matrix:                  941.412   392.091   2.1% ||
    Apply H:                       549.322   538.728   2.9% ||
     HMM T:                         10.593    10.593   0.1% |
   diagonalize:                      2.886     2.886   0.0% |
   rotate_psi:                     734.966   734.966   4.0% |-|
  calc. matrices:                 3751.439  2698.905  14.6% |-----|
   Apply H:                       1052.534  1032.797   5.6% |-|
    HMM T:                          19.736    19.736   0.1% |
  diagonalize:                      50.355    50.355   0.3% |
  rotate_psi:                     1476.226  1476.226   8.0% |--|
 Density:                          671.556     0.001   0.0% |
  Atomic density matrices:           0.731     0.731   0.0% |
  Mix:                             271.301   271.301   1.5% ||
  Multipole moments:                 0.038     0.038   0.0% |
  Pseudo density:                  399.486   398.593   2.2% ||
   Symmetrize density:               0.892     0.892   0.0% |
 Hamiltonian:                      363.165     0.619   0.0% |
  Atomic:                           17.997     8.476   0.0% |
   XC Correction:                    9.521     9.521   0.1% |
  Calculate atomic Hamiltonians:   264.578   264.578   1.4% ||
  Communicate:                       0.003     0.003   0.0% |
  Poisson:                           0.671     0.671   0.0% |
  XC 3D grid:                       79.297    79.297   0.4% |
 Orthonormalize:                    95.108     0.001   0.0% |
  calc_s_matrix:                    11.167    11.167   0.1% |
  inverse-cholesky:                  0.189     0.189   0.0% |
  projections:                      64.824    64.824   0.4% |
  rotate_psi_s:                     18.927    18.927   0.1% |
Set symmetry:                        0.004     0.004   0.0% |
Other:                              62.587    62.587   0.3% |
Total:                                     18478.489 100.0%

Date: Wed Oct 28 07:20:18 2020