User:   ubuntu@ip-172-31-71-9
Date:   Sun Nov  1 19:28:14 2020
Arch:   x86_64
Pid:    8763
Python: 3.8.3
gpaw:   /home/ubuntu/anaconda3/lib/python3.8/site-packages/gpaw
_gpaw:  /home/ubuntu/anaconda3/lib/python3.8/site-packages/
        _gpaw.cpython-38-x86_64-linux-gnu.so
ase:    /home/ubuntu/anaconda3/lib/python3.8/site-packages/ase (version 3.20.1)
numpy:  /home/ubuntu/anaconda3/lib/python3.8/site-packages/numpy (version 1.18.5)
scipy:  /home/ubuntu/anaconda3/lib/python3.8/site-packages/scipy (version 1.5.0)
units:  Angstrom and eV
cores: 8
OMP_NUM_THREADS: 1

Input parameters:
  convergence: {bands: CBM+2.0,
                density: 0.0001,
                eigenstates: 4e-08,
                energy: 0.0005,
                forces: inf}
  kpts: {gamma: True,
         size: (4, 4, 4)}
  mode: {ecut: 700.0,
         gammacentered: False,
         name: pw}
  occupations: {fixmagmom: False,
                name: fermi-dirac,
                width: 0.05}
  xc: PBE

System changes: positions, numbers, cell, pbc, initial_charges, initial_magmoms

Initialize ...

C-setup:
  name: Carbon
  id: 4aa54d4b901d75f77cc0ea3eec22967b
  Z: 6.0
  valence: 4
  core: 2
  charge: 0.0
  file: /home/ubuntu/gpaw_dataset/gpaw-setups-0.9.20000/C.PBE.gz
  compensation charges: gauss, rc=0.20, lmax=2
  cutoffs: 1.14(filt), 1.14(core),
  valence states:
                energy  radius
    2s(2.00)   -13.751   0.635
    2p(2.00)    -5.284   0.635
    *s          13.461   0.635
    *p          21.927   0.635
    *d           0.000   0.635

  Using partial waves for C as LCAO basis

Cl-setup:
  name: Chlorine
  id: 726897f06f34e53cf8e33b5885a02604
  Z: 17.0
  valence: 7
  core: 10
  charge: 0.0
  file: /home/ubuntu/gpaw_dataset/gpaw-setups-0.9.20000/Cl.PBE.gz
  compensation charges: gauss, rc=0.25, lmax=2
  cutoffs: 1.40(filt), 1.49(core),
  valence states:
                energy  radius
    3s(2.00)   -20.689   0.794
    3p(5.00)    -8.594   0.794
    *s           6.523   0.794
    *p          18.617   0.794
    *d           0.000   0.794

[...]

Cs-setup:
  name: Caesium
  id: fa822afd343f47335d508b9ee4f394c3
  Z: 55.0
  valence: 9
  core: 46
  charge: 0.0
  file: /home/ubuntu/gpaw_dataset/gpaw-setups-0.9.20000/Cs.PBE.gz
  compensation charges: gauss, rc=0.33, lmax=2
  cutoffs: 2.06(filt), 2.51(core),
  valence states:
                energy  radius
    5s(2.00)   -26.706   1.164
    6s(1.00)    -2.085   1.164
    5p(6.00)   -13.523   1.058
    *p          13.688   1.058
    *d           0.000   1.058

[...]

H-setup:
  name: Hydrogen
  id: d65de229564ff8ea4db303e23b6d1ecf
  Z: 1.0
  valence: 1
  core: 0
  charge: 0.0
  file: /home/ubuntu/gpaw_dataset/gpaw-setups-0.9.20000/H.PBE.gz
  compensation charges: gauss, rc=0.15, lmax=2
  cutoffs: 0.85(filt), 0.53(core),
  valence states:
                energy  radius
    1s(1.00)    -6.494   0.476
    *s          20.717   0.476
    *p           0.000   0.476

[...]

I-setup:
  name: Iodine
  id: 91405a398e4dfe788ff04f57531604ec
  Z: 53.0
  valence: 7
  core: 46
  charge: 0.0
  file: /home/ubuntu/gpaw_dataset/gpaw-setups-0.9.20000/I.PBE.gz
  compensation charges: gauss, rc=0.37, lmax=2
  cutoffs: 2.06(filt), 2.90(core),
  valence states:
                energy  radius
    5s(2.00)   -17.382   1.164
    5p(5.00)    -7.088   1.164
    *s           9.829   1.164
    *p          20.123   1.164
    *d           0.000   1.164

[...]

N-setup:
  name: Nitrogen
  id: f7500608b86eaa90eef8b1d9a670dc53
  Z: 7.0
  valence: 5
  core: 2
  charge: 0.0
  file: /home/ubuntu/gpaw_dataset/gpaw-setups-0.9.20000/N.PBE.gz
  compensation charges: gauss, rc=0.18, lmax=2
  cutoffs: 1.11(filt), 0.96(core),
  valence states:
                energy  radius
    2s(2.00)   -18.583   0.603
    2p(3.00)    -7.089   0.529
    *s           8.629   0.603
    *p          20.123   0.529
    *d           0.000   0.577

[...]

Pb-setup:
  name: Lead
  id: 66e73b13d76dc837202bcdb13fee58e6
  Z: 82.0
  valence: 14
  core: 68
  charge: 0.0
  file: /home/ubuntu/gpaw_dataset/gpaw-setups-0.9.20000/Pb.PBE.gz
  compensation charges: gauss, rc=0.38, lmax=2
  cutoffs: 2.36(filt), 2.43(core),
  valence states:
                energy  radius
    6s(2.00)   -11.969   1.259
    6p(2.00)    -3.506   1.275
    5d(10.00)   -21.211   1.217
    *s          15.243   1.259
    *p          23.705   1.275
    *d           6.001   1.217

  Using partial waves for Pb as LCAO basis

Reference energy: -7794476.916501

Spin-paired calculation

Convergence criteria:
  Maximum total energy change: 0.0005 eV / electron
  Maximum integral of absolute density change: 0.0001 electrons
  Maximum integral of absolute eigenstate change: 4e-08 eV^2
  Maximum number of iterations: 333

Symmetries present (total): 1

  ( 1  0  0)
  ( 0  1  0)
  ( 0  0  1)

64 k-points: 4 x 4 x 4 Monkhorst-Pack grid + [1/8,1/8,1/8]
36 k-points in the irreducible part of the Brillouin zone
       k-points in crystal coordinates                weights
   0:     0.00000000    0.00000000    0.00000000          1/64
   1:     0.00000000    0.00000000    0.25000000          2/64
   2:     0.00000000    0.00000000    0.50000000          1/64
   3:     0.00000000    0.25000000   -0.25000000          2/64
   4:     0.00000000    0.25000000    0.00000000          2/64
   5:     0.00000000    0.25000000    0.25000000          2/64
   6:     0.00000000    0.25000000    0.50000000          2/64
   7:     0.00000000    0.50000000    0.00000000          1/64
   8:     0.00000000    0.50000000    0.25000000          2/64
   9:     0.00000000    0.50000000    0.50000000          1/64
          ...
  35:     0.50000000    0.50000000    0.50000000          1/64

Wave functions: Plane wave expansion
  Cutoff energy: 700.000 eV
  Number of coefficients (min, max): 77334, 77605
  Pulay-stress correction: 0.000000 eV/Ang^3 (de/decut=0.000000)
  Using FFTW library
  ScaLapack parameters: grid=1x1, blocksize=None
  Wavefunction extrapolation:
    Improved wavefunction reuse through dual PAW basis

  Fermi-Dirac: width=0.0500 eV

Eigensolver
   Davidson(niter=2, smin=None, normalize=True)

Densities:
  Coarse grid: 75*75*75 grid
  Fine grid: 150*150*150 grid
  Total Charge: 0.000000

Density mixing:
  Method: separate
  Backend: pulay
  Linear mixing parameter: 0.05
  Mixing with 5 old densities
  Damping of long wave oscillations: 50

Hamiltonian:
  XC and Coulomb potentials evaluated on a 150*150*150 grid
  Using the PBE Exchange-Correlation functional

XC parameters: PBE with 2 nearest neighbor stencil

Total number of cores used: 8
Parallelization over k-points: 4
Domain decomposition: 2 x 1 x 1

Number of atoms: 89
Number of atomic orbitals: 292
Number of bands in calculation: 258
Number of valence electrons: 422
Bands to converge: CBM+2.0

... initialized

Initializing position-dependent things.

Density initialized from atomic densities
Creating initial wave functions:
  258 bands from LCAO basis set

    /    |               H    C   H    |
   /     |     Cs          N    N      |
  /      |                H     H      |
 *   I   |          Cl                 |
 |    HI | C   H     HCl  C   H        |
 |      N|   N         N    N          |
 |   PbH |   H      PbH    IH          |
 I       |     HI             H        |
 | I     |H N  C NIH     H N  C N H    |
 |       | H     H        H     H      |
 Pb  Cl  I------Pb--Cl-Cl--------------.
 |      /  H              H           /
 |    HIN  C N H     HCN  C N H      /
 |    /H     H        H     H       /
 I   Pb      Cl I   Pb     Cl      /
 | I              I              /
 Pb------Cl-----Pb-----I-------*

Positions:
   0 C      9.192898    9.598237    9.192891    ( 0.0000,  0.0000,  0.0000)
   1 C      9.192898    3.469642    9.192891    ( 0.0000,  0.0000,  0.0000)
   2 C      3.064304    3.469642    9.192891    ( 0.0000,  0.0000,  0.0000)
   3 C      9.192898    9.598237    3.064297    ( 0.0000,  0.0000,  0.0000)
   4 C      3.064304    9.598237    3.064297    ( 0.0000,  0.0000,  0.0000)
   5 C      9.192898    3.469642    3.064297    ( 0.0000,  0.0000,  0.0000)
   6 C      3.064304    3.469642    3.064297    ( 0.0000,  0.0000,  0.0000)
   7 Cl     6.128594    9.192891    0.000000    ( 0.0000,  0.0000,  0.0000)
   8 Cl     6.128594    9.192891    6.128594    ( 0.0000,  0.0000,  0.0000)
   9 Cl     3.064297    0.000000    0.000000    ( 0.0000,  0.0000,  0.0000)
  10 Cl     9.192891    6.128594    0.000000    ( 0.0000,  0.0000,  0.0000)
  11 Cl     3.064297    6.128594    0.000000    ( 0.0000,  0.0000,  0.0000)
  12 Cl     9.192891    0.000000    6.128594    ( 0.0000,  0.0000,  0.0000)
  13 Cl     6.128594    6.128594    9.192891    ( 0.0000,  0.0000,  0.0000)
  14 Cl     0.000000    6.128594    3.064297    ( 0.0000,  0.0000,  0.0000)
  15 Cl     6.128594    6.128594    3.064297    ( 0.0000,  0.0000,  0.0000)
  16 Cs     3.064297    9.192891    9.192891    ( 0.0000,  0.0000,  0.0000)
  17 H      9.192892   10.671770    9.192891    ( 0.0000,  0.0000,  0.0000)
  18 H     11.103678    9.597599    9.192891    ( 0.0000,  0.0000,  0.0000)
  19 H     10.430715    8.022023    9.192891    ( 0.0000,  0.0000,  0.0000)
  20 H      7.955069    8.022023    9.192891    ( 0.0000,  0.0000,  0.0000)
  21 H      7.282107    9.597599    9.192891    ( 0.0000,  0.0000,  0.0000)
  22 H      9.192892    4.543176    9.192891    ( 0.0000,  0.0000,  0.0000)
  23 H     11.103678    3.469005    9.192891    ( 0.0000,  0.0000,  0.0000)
  24 H     10.430715    1.893429    9.192891    ( 0.0000,  0.0000,  0.0000)
  25 H      7.955069    1.893429    9.192891    ( 0.0000,  0.0000,  0.0000)
  26 H      7.282107    3.469005    9.192891    ( 0.0000,  0.0000,  0.0000)
  27 H      3.064298    4.543176    9.192891    ( 0.0000,  0.0000,  0.0000)
  28 H      4.975083    3.469005    9.192891    ( 0.0000,  0.0000,  0.0000)
  29 H      4.302121    1.893429    9.192891    ( 0.0000,  0.0000,  0.0000)
  30 H      1.826475    1.893429    9.192891    ( 0.0000,  0.0000,  0.0000)
  31 H      1.153513    3.469005    9.192891    ( 0.0000,  0.0000,  0.0000)
  32 H      9.192892   10.671770    3.064297    ( 0.0000,  0.0000,  0.0000)
  33 H     11.103678    9.597599    3.064297    ( 0.0000,  0.0000,  0.0000)
  34 H     10.430715    8.022023    3.064297    ( 0.0000,  0.0000,  0.0000)
  35 H      7.955069    8.022023    3.064297    ( 0.0000,  0.0000,  0.0000)
  36 H      7.282107    9.597599    3.064297    ( 0.0000,  0.0000,  0.0000)
  37 H      3.064298   10.671770    3.064297    ( 0.0000,  0.0000,  0.0000)
  38 H      4.975083    9.597599    3.064297    ( 0.0000,  0.0000,  0.0000)
  39 H      4.302121    8.022023    3.064297    ( 0.0000,  0.0000,  0.0000)
  40 H      1.826475    8.022023    3.064297    ( 0.0000,  0.0000,  0.0000)
  41 H      1.153513    9.597599    3.064297    ( 0.0000,  0.0000,  0.0000)
  42 H      9.192892    4.543176    3.064297    ( 0.0000,  0.0000,  0.0000)
  43 H     11.103678    3.469005    3.064297    ( 0.0000,  0.0000,  0.0000)
  44 H     10.430715    1.893429    3.064297    ( 0.0000,  0.0000,  0.0000)
  45 H      7.955069    1.893429    3.064297    ( 0.0000,  0.0000,  0.0000)
  46 H      7.282107    3.469005    3.064297    ( 0.0000,  0.0000,  0.0000)
[...]
 |       |HN   C NI H    HN   C N  H   |
 |       | H     H        H     HI     |
 |   Cl  .----------Cl---------Pb------.
 |      /  H           Cl  H          /
 |    HN   C N  H    HN   C N  H     /
 |    /H     H        H     H       /
 |   /                     Cl      Pb
 | /              I              /
 *---------------------I-------*

[...]

Gap: 0.960 eV
Transition (v -> c):
  (s=0, k=0, n=210, [0.00, 0.00, 0.00]) -> (s=0, k=0, n=211, [0.00, 0.00, 0.00])

[...]

Density initialized from wave functions
         .-------Cl-----Pb-------------.
       I |            Cl               |
     /   I   Cl     Pb  I              |
    /    |               H    C   H    |
   /     |     Cs          N    N      |
  /      |       I        H     H      |
 Pb  I   |          Cl  Pb             |
 |    HI | C   H     HCl  C   H        |
 |      N|   N         N    N          |
 |     H I   H      PbH I   H          |
 |       |     H           I  H    Pb  |
 |       |H N  C NIH     H N  C N H    |
 |       | H     H        H     HI     |
 |   Cl  .----------Cl---------Pb------.
 |      /  H           Cl H           /
 |    H/N  C N H     H N  C N H      /
 |    /H     H        H     H       /
 |   /                     Cl      Pb
 | /              I              /
 *---------------------I-------*

[...]

Density initialized from wave functions
         .-------Cl-----Pb-------------.
       I |            Cl               |
     /   I   Cl     Pb  I              |
    /    |               H    CH   H   |
   /     |     Cs         N     N      |
  /      |       I       H      H      |
 Pb  I   |          Cl  Pb             |
 |    HI | CH   H    HCl  CH   H       |
 |     N |   N        N     N          |
 |     H I   H      PbH I   H          |
 |       |      H          I   H   Pb  |
 |       |HN   C NI H    HN   C N  H   |
 |       |H      H       H      HI     |
 |   Cl  .----------Cl---------Pb------.
 |      /   H          Cl  H          /
 |    HN   C N  H    HN   C N  H     /
 |    /H     H        H     H       /
 |   /                     Cl      Pb
 | /              I              /
 *---------------------I-------*

[...]

Density initialized from wave functions
         .-------Cl-----Pb-------------.
       I |            Cl               |
     /   I   Cl     Pb  I              |
    /    |               H    C    H   |
   /     |     Cs          N    N      |
  /      |       I        H     H      |
 Pb  I   |          Cl  Pb             |
 |    HI | C    H    HCl  C    H       |
 |      N|   N         N    N          |
 |     H I   H      PbH I   H          |
 |       |     H           I  H    Pb  |
 |       |H N  C NI H    H N  C N  H   |
 |       | H     H        H     HI     |
 |   Cl  .----------Cl---------Pb------.
 |      /  H           Cl H           /
 |    H/N  C N  H    H N  C N  H     /
 |    /H     H        H     H       /
 |   /                     Cl      Pb
 | /              I              /
 *---------------------I-------*

[...]

Density initialized from wave functions
         .-------Cl-----Pb-------------.
       I |            Cl               |
     /   I   Cl     Pb  I              |
    /    |               H    C    H   |
   /     |     Cs          N    N      |
  /      |       I        H     H      |
 Pb  I   |          Cl  Pb             |
 |    HI | CH   H    HCl  CH   H       |
 |      N|   N         N    N          |
 |     H I   H      PbH I   H          |
 |       |     H           I  H    Pb  |
 |       |H N  C NI H    H N  C N  H   |
 |       | H     H        H     HI     |
 |   Cl  .----------Cl---------Pb------.
 |      /   H          Cl  H          /
 |    H/N  C N  H    H N  C N  H     /
 |    /H     H        H     H       /
 |   /                     Cl      Pb
 | /              I              /
 *---------------------I-------*

[...]

Density initialized from wave functions
         .-------Cl-----Pb-------------.
       I |            Cl               |
     /   I   Cl     Pb  I              |
    /    |               H    C    H   |
   /     |     Cs          N    N      |
  /      |       I        H     H      |
 Pb  I   |          Cl  Pb             |
 |    HI | CH   H    HCl  CH   H       |
 |      N|   N         N    N          |
 |     H I   H      PbH I   H          |
 |       |     H           I  H    Pb  |
 |       |H N  C NI H    H N  C N  H   |
 |       | H     H        H     HI     |
 |   Cl  .----------Cl---------Pb------.
 |      /   H          Cl  H          /
 |    H/N  C N  H    H N  C N  H     /
 |    /H     H        H     H       /
 |   /                     Cl      Pb
 | /              I              /
 *---------------------I-------*

[...]

Density initialized from wave functions
         .-------Cl----Pb--------------.
       I |            Cl               |
     /   I   Cl     Pb  I              |
    /    |                    C        |
   /     |     Cs        HN     H  H   |
  /      |       I       H             |
 *Pb I   |          Cl  Pb             |
 |     I | CH         Cl  CH           |
 |    HHN|   H  H    HHN    N  H       |
 |       I   I      Pb  I   H          |
 |       |     H           I  H    Pb  |
 |       |H N  C NI H    HN   C N  H   |
 |       |H      H       H      HI     |
 |   Cl  .----------Cl--------Pb-------.
 |      /   H          Cl  H          /
 |    H/N  C N  H    H N  C N  H     /
 |    /H     H        H     H       /
 |   /                     Cl      Pb
 | /              I              /
 *---------------------I-------*

[...]

Density initialized from wave functions
         .-------Cl-----Pb-------------.
       I |            Cl               |
     /   I   Cl     Pb  I              |
    /    |                    C    H   |
   /     |     Cs        H N    N      |
  /      |       I        H     H      |
 Pb  I   |          Cl  Pb             |
 |    HI | CH   H    HCl  CH   H       |
 |      N|   N         N    N          |
 |     H I   H      PbH I   H          |
 |       |     H           I  H    Pb  |
 |       |H N  C NI H    H N  C N  H   |
 |       | H     H        H     HI     |
 |   Cl  .----------Cl---------Pb------.
 |      /   H          Cl  H          /
 |    H/N  C N  H    H N  C N  H     /
 |    /H     H        H     H       /
 |   /                     Cl      Pb
 | /              I              /
 *---------------------I-------*

[...]

Density initialized from wave functions
         .-------Cl----Pb--------------.
       I |            Cl               |
     /   I   Cl     Pb  I              |
    /    |                    C    H   |
   /     |     Cs        HN     N      |
  /      |       I        H     H      |
 Pb  I   |          Cl  Pb     Cl      |
 |    HI | C    H    HCl  CH   H       |
 |      N|   N         N    N          |
 |     H I   H      PbH I   H          |
 |       |     H           I  H    Pb  |
 |       |H N  C N  H    HN   C N  H   |
 |       | H     HI       H     HI     |
 |   Cl  .----------Cl---------Pb------.
 |      /   H             H           /
 |    H/N  C N  H    H N  C N  H     /
 |    /H     H        H     H       /
 |   /                     Cl      Pb
 | /              I              /
 *---------------------I-------*

[...]

Unit cell:
           periodic     x           y           z      points  spacing
  1. axis:    yes   12.257188    0.000000    0.000000    75     0.1634
  2. axis:    yes    0.000000   12.257188    0.000000    75     0.1634
  3. axis:    yes    0.000000    0.000000   12.257188    75     0.1634

  Lengths:  12.257188  12.257188  12.257188
  Angles:   90.000000  90.000000  90.000000

Effective grid spacing dv^(1/3) = 0.1634

                     log10-error:    total        iterations:
           time      wfs    density  energy       poisson
iter:   1  12:26:49  -1.76         -411.607356
iter:   2  12:39:52  -2.97  -2.16  -411.535410
iter:   3  12:52:54  -2.49  -2.20  -411.309991
iter:   4  13:05:56  -3.80  -2.51  -411.308116
iter:   5  13:18:58  -3.69  -2.59  -411.299479
iter:   6  13:32:02  -3.88  -2.79  -411.289095
iter:   7  13:45:04  -4.50  -3.03  -411.288314
iter:   8  13:58:06  -5.08  -3.26  -411.288378
iter:   9  14:11:05  -5.12  -3.40  -411.288558
iter:  10  14:24:04  -5.48  -3.54  -411.288468
iter:  11  14:37:04  -6.37  -3.91  -411.288451
iter:  12  14:50:03  -7.03  -3.97  -411.288445
iter:  13  15:03:03  -6.76  -4.03  -411.288434
iter:  14  15:16:03  -7.25  -4.26  -411.288431
iter:  15  15:29:03  -8.01  -4.34  -411.288430

Converged after 15 iterations.

Dipole moment: (-13.051541, 86.118857, -3.323227) |e|*Ang

Energy contributions relative to reference atoms: (reference = -7794476.916501)

Kinetic:       +551.344222
Potential:     -585.218462
External:        +0.000000
XC:            -378.260423
Entropy (-ST):   -0.000000
Local:           +0.846233
Free energy:   -411.288430
Extrapolated:  -411.288430

Showing only first 2 kpts
 Kpt  Band  Eigenvalues  Occupancy
  0   209      1.69019    0.03125
  0   210      2.05984    0.03125
  0   211      3.45898    0.00000
  0   212      3.55780    0.00000

  1   209      1.64851    0.06250
  1   210      1.91574    0.06250
  1   211      3.63448    0.00000
  1   212      3.70007    0.00000

Fermi level: 2.73566

Gap: 1.399 eV
Transition (v -> c):
  (s=0, k=0, n=210, [0.00, 0.00, 0.00]) -> (s=0, k=0, n=211, [0.00, 0.00, 0.00])

Forces in eV/Ang:
  0 C    -2.39454   -0.88803   -0.00121
  1 C    -0.89435   -0.92402    0.00085
  2 C     0.87991   -0.84179    0.01518
  3 C    -0.31206   -1.66547   -0.00053
  4 C     0.45472   -1.57290   -0.00127
  5 C    -0.35846   -0.85434   -0.00235
  6 C     0.44545   -0.87255   -0.01506
  7 Cl   -0.12736    0.00854   -0.05588
  8 Cl   -0.03653   -0.01024    0.04707
  9 Cl   -0.00117   -0.07876   -0.02147
 10 Cl    0.00712    0.06424    0.06068
 11 Cl    0.01469    0.10645    0.03128
 12 Cl    0.00983   -0.04264   -0.00934
 13 Cl    0.02349   -0.00332    0.01013
 14 Cl    0.00070   -0.05765   -0.00635
 15 Cl    0.00311    0.03434   -0.00728
 16 Cs    0.03054   -0.06972    0.01843
 17 H    -0.02220    0.56442    0.00745
 18 H    -0.29665    0.08297   -0.00011
 19 H    -0.30787    0.67550   -0.00148
 20 H     0.04817   -0.33610    0.01009
 21 H    -0.41979    0.39436    0.00944
 22 H     0.02046    1.23694    0.02974
 23 H    -0.35297    0.08838    0.00366
 24 H    -0.37869    1.06604    0.01639
 25 H     0.28893    0.81496    0.01457
 26 H     0.37070    0.06725    0.00566
 27 H    -0.02372    1.18984    0.02070
 28 H    -0.36313    0.07394    0.00730
 29 H    -0.28804    0.81170   -0.03618
 30 H     0.38084    1.05929   -0.03993
 31 H     0.33924    0.09886    0.00545
 32 H    -0.03211    0.61428   -0.00869
 33 H    -0.18171    0.00882   -0.00253
 34 H    -0.16845   -0.03113   -0.00324
 35 H     0.02900   -0.44254   -0.00931
 36 H    -0.13947    0.15824   -0.00723
 37 H     0.02800    0.59185    0.02051
 38 H     0.12101    0.15572    0.00819
 39 H    -0.03389   -0.40061    0.00025
 40 H     0.17990    0.01520    0.00341
 41 H     0.17326    0.02242    0.00638
 42 H    -0.00246    1.10653   -0.02823
 43 H    -0.50997   -0.03906   -0.00257
 44 H    -0.35057    0.85046   -0.01698
 45 H     0.31646    0.82939   -0.01399
 46 H     0.46152    0.00293   -0.00473
 47 H     0.00056    1.12671   -0.01947
 48 H    -0.45210    0.01193   -0.00718
 49 H    -0.31709    0.83316    0.03671
 50 H     0.35646    0.86634    0.03945
 51 H     0.51476   -0.03875   -0.00478
 52 I     0.11026   -0.00668   -0.09217
 53 I     0.01269   -0.03976    0.02608
 54 I    -0.03055   -0.03160    0.01268
 55 I     0.08746   -0.02214    0.08790
 56 I     0.00198   -0.02891   -0.02226
 57 I     0.02478   -0.03125   -0.01233
 58 I     0.01228   -0.01145    0.01357
 59 I     0.00120   -0.04479    0.02122
[...]
 74 N     0.70714    0.77990    0.01342
 75 N    -0.71191    0.73263    0.00246
 76 N    -0.07928    0.22946    0.00210
 77 N     1.59569   -0.83401    0.00154
 78 N    -1.20387   -0.66660   -0.00068
 79 N     1.15349   -0.65928    0.00228
 80 N    -1.65119   -0.87034    0.00091
 81 Pb    0.05214    0.01267    0.01882
 82 Pb   -0.00192   -0.00352    0.00662
 83 Pb   -0.01657    0.01322   -0.06362
 84 Pb   -0.00005   -0.09245   -0.01958
 85 Pb   -0.06165    0.00695   -0.01651
 86 Pb   -0.00443    0.00064   -0.00254
 87 Pb   -0.00310    0.01407    0.00459
 88 Pb   -0.00420   -0.01056    0.03286

System changes: positions

Initializing position-dependent things.

Density initialized from wave functions
         .-------Cl-----Pb-------------.
       I |            Cl               |
     /   I   Cl     Pb  I              |
    /    |                    C    H   |
   /     |     Cs        HN     N      |
  /      |       I        H     H      |
 Pb  I   |          Cl  Pb             |
 |    HI | C    H    HCl  CH   H       |
 |      N|   N         N    N          |
 |     H I   H      PbH I   H          |
 |       |     H           I  H    Pb  |
 |       |H N  C N  H    H N  C N  H   |
 |       | H     HI       H     HI     |
 |   Cl  .----------Cl---------Pb------.
 |      /   H          Cl  H          /
 |    H/N  C N  H    H N  C N  H     /
 |    /H     H        H     H       /
 |   /                     Cl      Pb
 | /              I              /
 *---------------------I-------*

Positions:
   0 C      9.184008    9.624149    9.189344    ( 0.0000,  0.0000,  0.0000)
   1 C      9.192308    3.512823    9.194419    ( 0.0000,  0.0000,  0.0000)
   2 C      3.064957    3.512971    9.195522    ( 0.0000,  0.0000,  0.0000)
   3 C      9.188183    9.613035    3.067742    ( 0.0000,  0.0000,  0.0000)
   4 C      3.068923    9.612801    3.062193    ( 0.0000,  0.0000,  0.0000)
   5 C      9.192156    3.517521    3.062581    ( 0.0000,  0.0000,  0.0000)
   6 C      3.064887    3.517350    3.061502    ( 0.0000,  0.0000,  0.0000)
   7 Cl     6.100817    9.186950   -0.015157    ( 0.0000,  0.0000,  0.0000)
   8 Cl     6.104912    9.194961    6.143502    ( 0.0000,  0.0000,  0.0000)
   9 Cl     3.069307   -0.013639   -0.006753    ( 0.0000,  0.0000,  0.0000)
  10 Cl     9.180781    6.132194    0.006271    ( 0.0000,  0.0000,  0.0000)
  11 Cl     3.077514    6.146458   -0.001621    ( 0.0000,  0.0000,  0.0000)
  12 Cl     9.189069    0.001338    6.124658    ( 0.0000,  0.0000,  0.0000)
  13 Cl     6.133471    6.090940    9.205013    ( 0.0000,  0.0000,  0.0000)
  14 Cl     0.000686    6.090573    3.058178    ( 0.0000,  0.0000,  0.0000)
  15 Cl     6.127713    6.093163    3.052688    ( 0.0000,  0.0000,  0.0000)
  16 Cs     3.087847    9.180733    9.210293    ( 0.0000,  0.0000,  0.0000)
  17 H      9.183041   10.711298    9.188120    ( 0.0000,  0.0000,  0.0000)
  18 H     11.208752    9.580946    9.191995    ( 0.0000,  0.0000,  0.0000)
  19 H     10.475105    8.015371    9.195512    ( 0.0000,  0.0000,  0.0000)
  20 H      7.890572    8.004934    9.195231    ( 0.0000,  0.0000,  0.0000)
  21 H      7.159977    9.573217    9.192057    ( 0.0000,  0.0000,  0.0000)
  22 H      9.193376    4.596845    9.198744    ( 0.0000,  0.0000,  0.0000)
  23 H     11.199441    3.465853    9.193960    ( 0.0000,  0.0000,  0.0000)
  24 H     10.475221    1.886095    9.190945    ( 0.0000,  0.0000,  0.0000)
  25 H      7.905067    1.894018    9.191015    ( 0.0000,  0.0000,  0.0000)
  26 H      7.181646    3.471566    9.193736    ( 0.0000,  0.0000,  0.0000)
  27 H      3.063838    4.597309    9.199055    ( 0.0000,  0.0000,  0.0000)
  28 H      5.075804    3.470720    9.194061    ( 0.0000,  0.0000,  0.0000)
  29 H      4.351292    1.893861    9.192874    ( 0.0000,  0.0000,  0.0000)
  30 H      1.783113    1.885849    9.192814    ( 0.0000,  0.0000,  0.0000)
  31 H      1.057692    3.465104    9.194241    ( 0.0000,  0.0000,  0.0000)
  32 H      9.191165   10.700865    3.068944    ( 0.0000,  0.0000,  0.0000)
  33 H     11.195794    9.583986    3.065105    ( 0.0000,  0.0000,  0.0000)
  34 H     10.489366    8.000115    3.062182    ( 0.0000,  0.0000,  0.0000)
  35 H      7.891575    7.999790    3.062178    ( 0.0000,  0.0000,  0.0000)
  36 H      7.181077    9.583821    3.065072    ( 0.0000,  0.0000,  0.0000)
  37 H      3.065999   10.700761    3.059654    ( 0.0000,  0.0000,  0.0000)
  38 H      5.076312    9.583745    3.063854    ( 0.0000,  0.0000,  0.0000)
  39 H      4.366338    7.999804    3.063597    ( 0.0000,  0.0000,  0.0000)
  40 H      1.767375    8.000321    3.063377    ( 0.0000,  0.0000,  0.0000)
  41 H      1.061958    9.583702    3.063780    ( 0.0000,  0.0000,  0.0000)
  42 H      9.191996    4.600922    3.058612    ( 0.0000,  0.0000,  0.0000)
  43 H     11.202336    3.467934    3.063348    ( 0.0000,  0.0000,  0.0000)
  44 H     10.476615    1.894519    3.066089    ( 0.0000,  0.0000,  0.0000)
  45 H      7.909787    1.894906    3.066131    ( 0.0000,  0.0000,  0.0000)