User:   ubuntu@ip-172-31-71-9
Date:   Sun Nov  1 19:28:14 2020
Arch:   x86_64
Pid:    8763
Python: 3.8.3
gpaw:   /home/ubuntu/anaconda3/lib/python3.8/site-packages/gpaw
_gpaw:  /home/ubuntu/anaconda3/lib/python3.8/site-packages/
        _gpaw.cpython-38-x86_64-linux-gnu.so
ase:    /home/ubuntu/anaconda3/lib/python3.8/site-packages/ase (version 3.20.1)
numpy:  /home/ubuntu/anaconda3/lib/python3.8/site-packages/numpy (version 1.18.5)
scipy:  /home/ubuntu/anaconda3/lib/python3.8/site-packages/scipy (version 1.5.0)
units:  Angstrom and eV
cores: 8
OMP_NUM_THREADS: 1

Input parameters:
  convergence: {bands: CBM+2.0,
                density: 0.0001,
                eigenstates: 4e-08,
                energy: 0.0005,
                forces: inf}
  kpts: {gamma: True,
         size: (4, 4, 4)}
  mode: {ecut: 700.0,
         gammacentered: False,
         name: pw}
  occupations: {fixmagmom: False,
                name: fermi-dirac,
                width: 0.05}
  xc: PBE

System changes: positions, numbers, cell, pbc, initial_charges, initial_magmoms

Initialize ...

C-setup:
  name: Carbon
  id: 4aa54d4b901d75f77cc0ea3eec22967b
  Z: 6.0
  valence: 4
  core: 2
  charge: 0.0
  file: /home/ubuntu/gpaw_dataset/gpaw-setups-0.9.20000/C.PBE.gz
  compensation charges: gauss, rc=0.20, lmax=2
  cutoffs: 1.14(filt), 1.14(core),
  valence states:
                energy  radius
    2s(2.00)   -13.751   0.635
    2p(2.00)    -5.284   0.635
    *s          13.461   0.635
    *p          21.927   0.635
    *d           0.000   0.635

  Using partial waves for C as LCAO basis

Cl-setup:
  name: Chlorine
  id: 726897f06f34e53cf8e33b5885a02604
  Z: 17.0
  valence: 7
  core: 10
  charge: 0.0
  file: /home/ubuntu/gpaw_dataset/gpaw-setups-0.9.20000/Cl.PBE.gz
  compensation charges: gauss, rc=0.25, lmax=2
  cutoffs: 1.40(filt), 1.49(core),
  valence states:
                energy  radius
    3s(2.00)   -20.689   0.794
    3p(5.00)    -8.594   0.794
    *s           6.523   0.794
    *p          18.617   0.794
    *d           0.000   0.794

[...]

Cs-setup:
  name: Caesium
  id: fa822afd343f47335d508b9ee4f394c3
  Z: 55.0
  valence: 9
  core: 46
  charge: 0.0
  file: /home/ubuntu/gpaw_dataset/gpaw-setups-0.9.20000/Cs.PBE.gz
  compensation charges: gauss, rc=0.33, lmax=2
  cutoffs: 2.06(filt), 2.51(core),
  valence states:
                energy  radius
    5s(2.00)   -26.706   1.164
    6s(1.00)    -2.085   1.164
    5p(6.00)   -13.523   1.058
    *p          13.688   1.058
    *d           0.000   1.058

[...]

H-setup:
  name: Hydrogen
  id: d65de229564ff8ea4db303e23b6d1ecf
  Z: 1.0
  valence: 1
  core: 0
  charge: 0.0
  file: /home/ubuntu/gpaw_dataset/gpaw-setups-0.9.20000/H.PBE.gz
  compensation charges: gauss, rc=0.15, lmax=2
  cutoffs: 0.85(filt), 0.53(core),
  valence states:
                energy  radius
    1s(1.00)    -6.494   0.476
    *s          20.717   0.476
    *p           0.000   0.476

[...]

I-setup:
  name: Iodine
  id: 91405a398e4dfe788ff04f57531604ec
  Z: 53.0
  valence: 7
  core: 46
  charge: 0.0
  file: /home/ubuntu/gpaw_dataset/gpaw-setups-0.9.20000/I.PBE.gz
  compensation charges: gauss, rc=0.37, lmax=2
  cutoffs: 2.06(filt), 2.90(core),
  valence states:
                energy  radius
    5s(2.00)   -17.382   1.164
    5p(5.00)    -7.088   1.164
    *s           9.829   1.164
    *p          20.123   1.164
    *d           0.000   1.164

[...]

N-setup:
  name: Nitrogen
  id: f7500608b86eaa90eef8b1d9a670dc53
  Z: 7.0
  valence: 5
  core: 2
  charge: 0.0
  file: /home/ubuntu/gpaw_dataset/gpaw-setups-0.9.20000/N.PBE.gz
  compensation charges: gauss, rc=0.18, lmax=2
  cutoffs: 1.11(filt), 0.96(core),
  valence states:
                energy  radius
    2s(2.00)   -18.583   0.603
    2p(3.00)    -7.089   0.529
    *s           8.629   0.603
    *p          20.123   0.529
    *d           0.000   0.577

[...]

Pb-setup:
  name: Lead
  id: 66e73b13d76dc837202bcdb13fee58e6
  Z: 82.0
  valence: 14
  core: 68
  charge: 0.0
  file: /home/ubuntu/gpaw_dataset/gpaw-setups-0.9.20000/Pb.PBE.gz
  compensation charges: gauss, rc=0.38, lmax=2
  cutoffs: 2.36(filt), 2.43(core),
  valence states:
                energy  radius
    6s(2.00)   -11.969   1.259
    6p(2.00)    -3.506   1.275
    5d(10.00)   -21.211   1.217
    *s          15.243   1.259
    *p          23.705   1.275
    *d           6.001   1.217

  Using partial waves for Pb as LCAO basis

Reference energy: -7794476.916501

Spin-paired calculation

Convergence criteria:
  Maximum total energy change: 0.0005 eV / electron
  Maximum integral of absolute density change: 0.0001 electrons
  Maximum integral of absolute eigenstate change: 4e-08 eV^2
  Maximum number of iterations: 333

Symmetries present (total): 1

  ( 1  0  0)
  ( 0  1  0)
  ( 0  0  1)

64 k-points: 4 x 4 x 4 Monkhorst-Pack grid + [1/8,1/8,1/8]
36 k-points in the irreducible part of the Brillouin zone
       k-points in crystal coordinates                weights
   0:     0.00000000    0.00000000    0.00000000          1/64
   1:     0.00000000    0.00000000    0.25000000          2/64
   2:     0.00000000    0.00000000    0.50000000          1/64
   3:     0.00000000    0.25000000   -0.25000000          2/64
   4:     0.00000000    0.25000000    0.00000000          2/64
   5:     0.00000000    0.25000000    0.25000000          2/64
   6:     0.00000000    0.25000000    0.50000000          2/64
   7:     0.00000000    0.50000000    0.00000000          1/64
   8:     0.00000000    0.50000000    0.25000000          2/64
   9:     0.00000000    0.50000000    0.50000000          1/64
          ...
  35:     0.50000000    0.50000000    0.50000000          1/64

Wave functions: Plane wave expansion
  Cutoff energy: 700.000 eV
  Number of coefficients (min, max): 77334, 77605
  Pulay-stress correction: 0.000000 eV/Ang^3 (de/decut=0.000000)
  Using FFTW library
  ScaLapack parameters: grid=1x1, blocksize=None
  Wavefunction extrapolation:
    Improved wavefunction reuse through dual PAW basis

  Fermi-Dirac: width=0.0500 eV

Eigensolver
   Davidson(niter=2, smin=None, normalize=True)

Densities:
  Coarse grid: 75*75*75 grid
  Fine grid: 150*150*150 grid
  Total Charge: 0.000000

Density mixing:
  Method: separate
  Backend: pulay
  Linear mixing parameter: 0.05
  Mixing with 5 old densities
  Damping of long wave oscillations: 50

Hamiltonian:
  XC and Coulomb potentials evaluated on a 150*150*150 grid
  Using the PBE Exchange-Correlation functional

XC parameters: PBE with 2 nearest neighbor stencil

Total number of cores used: 8
Parallelization over k-points: 4
Domain decomposition: 2 x 1 x 1

Number of atoms: 89
Number of atomic orbitals: 292
Number of bands in calculation: 258
Number of valence electrons: 422
Bands to converge: CBM+2.0

... initialized

Initializing position-dependent things.

Density initialized from atomic densities
Creating initial wave functions:
  258 bands from LCAO basis set

    /    |               H    C   H    |
   /     |     Cs          N    N      |
  /      |                H     H      |
 *   I   |          Cl                 |
 |    HI | C   H     HCl  C   H        |
 |      N|   N         N    N          |
 |   PbH |   H      PbH    IH          |
 I       |     HI             H        |
 | I     |H N  C NIH     H N  C N H    |
 |       | H     H        H     H      |
 Pb  Cl  I------Pb--Cl-Cl--------------.
 |      /  H              H           /
 |    HIN  C N H     HCN  C N H      /
 |    /H     H        H     H       /
 I   Pb      Cl I   Pb     Cl      /
 | I              I              /
 Pb------Cl-----Pb-----I-------*

Positions:
   0 C      9.192898    9.598237    9.192891    ( 0.0000,  0.0000,  0.0000)
   1 C      9.192898    3.469642    9.192891    ( 0.0000,  0.0000,  0.0000)
   2 C      3.064304    3.469642    9.192891    ( 0.0000,  0.0000,  0.0000)
   3 C      9.192898    9.598237    3.064297    ( 0.0000,  0.0000,  0.0000)
   4 C      3.064304    9.598237    3.064297    ( 0.0000,  0.0000,  0.0000)
   5 C      9.192898    3.469642    3.064297    ( 0.0000,  0.0000,  0.0000)
   6 C      3.064304    3.469642    3.064297    ( 0.0000,  0.0000,  0.0000)
   7 Cl     6.128594    9.192891    0.000000    ( 0.0000,  0.0000,  0.0000)
   8 Cl     6.128594    9.192891    6.128594    ( 0.0000,  0.0000,  0.0000)
   9 Cl     3.064297    0.000000    0.000000    ( 0.0000,  0.0000,  0.0000)
  10 Cl     9.192891    6.128594    0.000000    ( 0.0000,  0.0000,  0.0000)
  11 Cl     3.064297    6.128594    0.000000    ( 0.0000,  0.0000,  0.0000)
  12 Cl     9.192891    0.000000    6.128594    ( 0.0000,  0.0000,  0.0000)
  13 Cl     6.128594    6.128594    9.192891    ( 0.0000,  0.0000,  0.0000)
  14 Cl     0.000000    6.128594    3.064297    ( 0.0000,  0.0000,  0.0000)
  15 Cl     6.128594    6.128594    3.064297    ( 0.0000,  0.0000,  0.0000)
  16 Cs     3.064297    9.192891    9.192891    ( 0.0000,  0.0000,  0.0000)
  17 H      9.192892   10.671770    9.192891    ( 0.0000,  0.0000,  0.0000)
  18 H     11.103678    9.597599    9.192891    ( 0.0000,  0.0000,  0.0000)
  19 H     10.430715    8.022023    9.192891    ( 0.0000,  0.0000,  0.0000)
  20 H      7.955069    8.022023    9.192891    ( 0.0000,  0.0000,  0.0000)
  21 H      7.282107    9.597599    9.192891    ( 0.0000,  0.0000,  0.0000)
  22 H      9.192892    4.543176    9.192891    ( 0.0000,  0.0000,  0.0000)
  23 H     11.103678    3.469005    9.192891    ( 0.0000,  0.0000,  0.0000)
  24 H     10.430715    1.893429    9.192891    ( 0.0000,  0.0000,  0.0000)
  25 H      7.955069    1.893429    9.192891    ( 0.0000,  0.0000,  0.0000)
  26 H      7.282107    3.469005    9.192891    ( 0.0000,  0.0000,  0.0000)
  27 H      3.064298    4.543176    9.192891    ( 0.0000,  0.0000,  0.0000)
  28 H      4.975083    3.469005    9.192891    ( 0.0000,  0.0000,  0.0000)
  29 H      4.302121    1.893429    9.192891    ( 0.0000,  0.0000,  0.0000)
  30 H      1.826475    1.893429    9.192891    ( 0.0000,  0.0000,  0.0000)
  31 H      1.153513    3.469005    9.192891    ( 0.0000,  0.0000,  0.0000)
  32 H      9.192892   10.671770    3.064297    ( 0.0000,  0.0000,  0.0000)
  33 H     11.103678    9.597599    3.064297    ( 0.0000,  0.0000,  0.0000)
  34 H     10.430715    8.022023    3.064297    ( 0.0000,  0.0000,  0.0000)
  35 H      7.955069    8.022023    3.064297    ( 0.0000,  0.0000,  0.0000)
  36 H      7.282107    9.597599    3.064297    ( 0.0000,  0.0000,  0.0000)
  37 H      3.064298   10.671770    3.064297    ( 0.0000,  0.0000,  0.0000)
  38 H      4.975083    9.597599    3.064297    ( 0.0000,  0.0000,  0.0000)
  39 H      4.302121    8.022023    3.064297    ( 0.0000,  0.0000,  0.0000)
  40 H      1.826475    8.022023    3.064297    ( 0.0000,  0.0000,  0.0000)
  41 H      1.153513    9.597599    3.064297    ( 0.0000,  0.0000,  0.0000)
  42 H      9.192892    4.543176    3.064297    ( 0.0000,  0.0000,  0.0000)
  43 H     11.103678    3.469005    3.064297    ( 0.0000,  0.0000,  0.0000)
  44 H     10.430715    1.893429    3.064297    ( 0.0000,  0.0000,  0.0000)
  45 H      7.955069    1.893429    3.064297    ( 0.0000,  0.0000,  0.0000)
  46 H      7.282107    3.469005    3.064297    ( 0.0000,  0.0000,  0.0000)
[...]
 |   /       Cl            Cl      Pb
 | /              I              /
 *---------------------I-------*

[...]

Density initialized from wave functions
         .------Cl-----Pb--------------.
       I |            Cl               |
     /   I          Pb  I              |
    /    |               H    C    H   |
   /     |     Cs         N     N      |
  /      |       I        H     H      |
 *Pb I   |          Cl  Pb     Cl      |
 |    HI | CH   H    HCl  CH   H       |
 |      N|   N         N    N          |
 |     H I   H      PbH I   H          |
 |       |     H           I  H    Pb  |
 |       |H N  C N  H    HN   C N  H   |
 |       | H     HI      H      HI     |
 |   Cl  .----------Cl--------Pb-------.
 |      /   H              H          /
 |    H/N  C N  H    H N  C N  H     /
 |    /H     H        H     H       /
 |   /       Cl            Cl      Pb
 | /              I              /
 *---------------------I-------*

[...]

Density initialized from wave functions
         .------Cl-----Pb--------------.
       I |            Cl               |
     /   I          Pb  I              |
    /    |               H    H    H   |
   /     |     Cs         N   C N      |
  /      |       I        H     H      |
 *Pb I   |          Cl  Pb     Cl      |
 |    HI | C    H    HCl  CH   H       |
 |      N|   N        HN    H          |
 |     H I   H      Pb  I              |
 |       |     H            I H    Pb  |
 |       |H N  C N  H    HN   C N  H   |
 |       | H     HI      H      HI     |
 |   Cl  .----------Cl--------Pb-------.
 |      /   H             H           /
 |    H/N  C N  H    H N  C N  H     /
 |    /H     H        H     H       /
 |   /       Cl            Cl      /b
 | I              I              /
 *---------------------I-------*

[...]

Density initialized from wave functions
         .------Cl-----Pb--------------.
       I |            Cl               |
     /   I          Pb  I              |
    /    |               H    C    H   |
   /     |     Cs         N     N      |
  /      |       I        H     H      |
 *Pb I   |          Cl  Pb     Cl      |
 |    HI | C    H    HCl  CH   H       |
 |      N|   N        HN    H          |
 |     H I   H      Pb  I              |
 |       |     H            I H    Pb  |
 |       |H N  C N  H    HN   C N  H   |
 |       | H     HI      H      HI     |
 |   Cl  .----------Cl--------Pb-------.
 |      /   H              H          /
 |    H/N  C N  H    H N  C N  H     /
 |    /H     H        H     H       /
 |   /       Cl            Cl      Pb
 | I              I              /
 *---------------------I-------*

[...]

Density initialized from wave functions
         .------Cl-----Pb--------------.
       I |            Cl               |
     /   I          Pb  I              |
    /    |               H    C    H   |
   /     |     Cs         N     N      |
  /      |       I        H     H      |
 *Pb I   |          Cl  Pb     Cl      |
 |    HI | C    H    HCl  CH   H       |
 |      N|   N        HN    N          |
 |     H I   H      Pb  I   H          |
 |       |     H            I H    Pb  |
 |       |H N  C N  H    HN   C N  H   |
 |       | H     HI      H      HI     |
 |   Cl  .----------Cl--------Pb-------.
 |      /   H              H          /
 |    H/N  C N  H    H N  C N  H     /
 |    /H     H        H     H       /
 |   /       Cl            Cl      Pb
 | /              I              /
 *---------------------I-------*

[...]

Density initialized from wave functions
         .------Cl-----Pb--------------.
       I |            Cl               |
     /   I          Pb  I              |
    /    |               H    C    H   |
   /     |     Cs         N     N      |
  /      |       I       H      H     Pb
 *Pb I   |          Cl  Pb     Cl      |
 |    HI | CH   H    HCl  CH   H       |
 |      N|   N        HN    H          |
 |     H I   H      Pb  I              |
 |       |      H           I H    Pb  |
 |       |H N  C N  H    HN   C N  H   |
 |       | H     HI      H      HI     |
 |   Cl  .----------Cl---------I-------.
 |      /   H              H          /
 |    H/N  C N  H    H N  C N  H     /
 |    /H     H        H     H       /
 |   /       Cl            Cl      /b
 | I              I              /

[...]

Density initialized from wave functions
         .------Cl-----Pb--------------.
       I |            Cl               |
     /   I          Pb  I              |
    /    |               H    C    H   |
   /     |     Cs         N     N      |
  /      |       I        H     H      |
 *Pb I   |          Cl  Pb     Cl      |
 |    HI | C    H    HCl  CH   H       |
 |      N|   N        HN    H          |
 |     H I   H      Pb  I              |
 |       |     H            I H    Pb  |
 |       |H N  C N  H    HN   C N  H   |
 |       | H     HI      H      HI     |
 |   Cl  .----------Cl--------Pb-------.
 |      /   H              H          /
 |    H/N  C N  H    H N  C N  H     /
 |    /H     H        H     H       /
 |   /       Cl            Cl      Pb
 | I              I              /
 *---------------------I-------*

[...]

Converged after 14 iterations.

Dipole moment: (-33.673522, 130.859800, 0.520290) |e|*Ang

Energy contributions relative to reference atoms: (reference = -7794476.916501)

Kinetic:       +552.788539
Potential:     -586.522121
External:        +0.000000
XC:            -378.897922
Entropy (-ST):   -0.000000
Local:           +0.837933
Free energy:   -411.793571
Extrapolated:  -411.793571

Showing only first 2 kpts
 Kpt  Band  Eigenvalues  Occupancy
  0   209      1.69601    0.03125
  0   210      2.05062    0.03125
  0   211      3.47336    0.00000
  0   212      3.58281    0.00000

  1   209      1.66022    0.06250
  1   210      1.91214    0.06250
  1   211      3.65449    0.00000
  1   212      3.70031    0.00000

Fermi level: 2.73957

Gap: 1.423 eV
Transition (v -> c):
  (s=0, k=0, n=210, [0.00, 0.00, 0.00]) -> (s=0, k=0, n=211, [0.00, 0.00, 0.00])

Forces in eV/Ang:
  0 C     0.81896    0.08508    0.01304
  1 C    -0.17737    0.17148    0.01268
  2 C     0.21893    0.16642   -0.00718
  3 C     0.23921   -0.03604   -0.01214
  4 C    -0.17052   -0.02039    0.02138
  5 C    -0.26399    0.19848   -0.01307
  6 C     0.25302    0.19743    0.00764
  7 Cl   -0.08313   -0.01324   -0.04982
  8 Cl   -0.01363   -0.04075    0.03609
  9 Cl    0.00458   -0.03751   -0.00782
 10 Cl    0.04072    0.04386    0.03992
 11 Cl    0.03743    0.05084    0.01676
 12 Cl    0.00129   -0.03132   -0.00252
 13 Cl    0.01715   -0.04323   -0.01176
 14 Cl   -0.00072   -0.06219   -0.01456
 15 Cl    0.00332   -0.02450    0.00525
 16 Cs    0.01646   -0.05214    0.02521
 17 H    -0.10750    0.15907    0.00232
 18 H    -0.32116   -0.21192    0.00486
 19 H     0.01733    0.22322   -0.00752
 20 H    -0.15108   -0.25195    0.00256
 21 H    -0.36061    0.07338    0.00996
 22 H     0.00650    0.07341   -0.00563
 23 H     0.00254   -0.02870    0.00659
 24 H     0.06121   -0.03429    0.01256
 25 H    -0.08439    0.02020    0.00814
 26 H     0.03539   -0.01144    0.00829
 27 H    -0.00938    0.08704    0.03725
 28 H    -0.03290   -0.01076   -0.00033
 29 H     0.08760    0.04030   -0.03210
 30 H    -0.05127   -0.03270   -0.03543
 31 H    -0.00357   -0.03416    0.00010
 32 H    -0.06084    0.08096   -0.00387
 33 H    -0.30673   -0.25219   -0.00435
 34 H     0.00471    0.22637    0.00417
 35 H    -0.12675   -0.31578   -0.00361
 36 H    -0.28839    0.06037   -0.00916
 37 H     0.05475    0.07625    0.01268
 38 H     0.24645    0.03305    0.00866
 39 H     0.11855   -0.26108   -0.01050
 40 H    -0.00787    0.19074   -0.00670
 41 H     0.26283   -0.22878    0.01010
 42 H     0.01704    0.00230    0.00117
 43 H    -0.07981   -0.06510   -0.00886
 44 H     0.06184   -0.01267   -0.01190
 45 H    -0.09380    0.01119   -0.00826
 46 H     0.08214   -0.06555   -0.00800
 47 H    -0.01687    0.00742   -0.03830
 48 H    -0.08143   -0.06608    0.00076
 49 H     0.09288    0.01729    0.03433
 50 H    -0.06198   -0.01218    0.03715
 51 H     0.07350   -0.06171   -0.00227
 52 I     0.08454   -0.01775   -0.04254
 53 I     0.01065    0.00305    0.00860
 54 I    -0.02142   -0.01193   -0.00124
 55 I     0.07203   -0.01195    0.03955
 56 I     0.00761   -0.01362   -0.00408
 57 I     0.02120   -0.01487    0.00156
 58 I     0.01233   -0.00804    0.00192
 59 I     0.00549   -0.01036   -0.00090
[...]
 74 N     0.30379    0.11178   -0.00407
 75 N    -0.26777    0.08141    0.00677
 76 N    -0.13257   -0.11917   -0.00050
 77 N     0.14318    0.06615   -0.01638
 78 N     0.08045    0.15512   -0.02249
 79 N    -0.06835    0.14605    0.01143
 80 N    -0.13558    0.06452    0.01104
 81 Pb   -0.06792   -0.02481   -0.01030
 82 Pb    0.10763    0.01595   -0.00406
 83 Pb   -0.03823    0.00902   -0.06524
 84 Pb   -0.05158   -0.06696    0.03584
 85 Pb    0.06968   -0.03006    0.01130
 86 Pb   -0.15344    0.07779    0.00616
 87 Pb    0.00638   -0.00713    0.05127
 88 Pb    0.00078   -0.09113    0.00392

System changes: positions

Initializing position-dependent things.

Density initialized from wave functions
         .Pb----Cl------Pb-------------.
       /I|           Cl                |
     /   I          Pb I               |
    /    |               H    H   H    |
   /     |     Cs         N   C N      |
  /      |       I       H      H     Pb
 *   I   |          Cl  Pb     Cl      |
 |    HI | CH   H    HCl  CH   H       |
 |      N|   N        HN    H          |
 |     H I   H      Pb  I              |
 |       |      H           I H    Pb  |
 |       |H N  C N  H    HN   C N  H   |
 | I     |H      HI      H      H      |
 |       .----------Cl---------I---Cl--.
 |      /   H              H          /
 |    H/N  C N  H    H N  C N  H     /
 |    /H     H        H     H       /
 |   /       Cl             Cl     /b
 | I              I              /

Positions:
   0 C      9.142240    9.577601    9.190048    ( 0.0000,  0.0000,  0.0000)
   1 C      9.176685    3.565440    9.203407    ( 0.0000,  0.0000,  0.0000)
   2 C      3.085813    3.567345    9.204773    ( 0.0000,  0.0000,  0.0000)
   3 C      9.160322    9.528222    3.066287    ( 0.0000,  0.0000,  0.0000)
   4 C      3.101752    9.529670    3.075368    ( 0.0000,  0.0000,  0.0000)
   5 C      9.172374    3.595736    3.052582    ( 0.0000,  0.0000,  0.0000)
   6 C      3.084330    3.595665    3.052657    ( 0.0000,  0.0000,  0.0000)
   7 Cl     5.896458    9.178517   -0.121891    ( 0.0000,  0.0000,  0.0000)
   8 Cl     6.050979    9.159215    6.232308    ( 0.0000,  0.0000,  0.0000)
   9 Cl     3.086284   -0.127820   -0.042489    ( 0.0000,  0.0000,  0.0000)
  10 Cl     9.182392    6.231960    0.100038    ( 0.0000,  0.0000,  0.0000)
  11 Cl     3.133504    6.308315    0.043177    ( 0.0000,  0.0000,  0.0000)
  12 Cl     9.184824   -0.057152    6.112080    ( 0.0000,  0.0000,  0.0000)
  13 Cl     6.182555    6.045346    9.217171    ( 0.0000,  0.0000,  0.0000)
  14 Cl    -0.000073    5.939378    3.040624    ( 0.0000,  0.0000,  0.0000)
  15 Cl     6.133388    6.094000    3.041073    ( 0.0000,  0.0000,  0.0000)
  16 Cs     3.130491    9.074290    9.254615    ( 0.0000,  0.0000,  0.0000)
  17 H      9.115050   10.670674    9.197900    ( 0.0000,  0.0000,  0.0000)
  18 H     11.121386    9.605164    9.198831    ( 0.0000,  0.0000,  0.0000)
  19 H     10.450690    8.001085    9.200685    ( 0.0000,  0.0000,  0.0000)
  20 H      7.837765    7.966463    9.203431    ( 0.0000,  0.0000,  0.0000)
  21 H      7.135174    9.555955    9.203607    ( 0.0000,  0.0000,  0.0000)
  22 H      9.199308    4.656455    9.223358    ( 0.0000,  0.0000,  0.0000)
  23 H     11.167065    3.548371    9.205173    ( 0.0000,  0.0000,  0.0000)
  24 H     10.477091    1.946618    9.220473    ( 0.0000,  0.0000,  0.0000)
  25 H      7.850688    1.985756    9.214234    ( 0.0000,  0.0000,  0.0000)
  26 H      7.192934    3.597881    9.207156    ( 0.0000,  0.0000,  0.0000)
  27 H      3.052651    4.658186    9.241338    ( 0.0000,  0.0000,  0.0000)
  28 H      5.070475    3.594920    9.204512    ( 0.0000,  0.0000,  0.0000)
  29 H      4.404255    1.988104    9.131660    ( 0.0000,  0.0000,  0.0000)
  30 H      1.796451    1.940460    9.126612    ( 0.0000,  0.0000,  0.0000)
  31 H      1.099974    3.541744    9.202887    ( 0.0000,  0.0000,  0.0000)
  32 H      9.158235   10.637840    3.056469    ( 0.0000,  0.0000,  0.0000)
  33 H     11.152358    9.570673    3.056995    ( 0.0000,  0.0000,  0.0000)
  34 H     10.501939    7.943333    3.058024    ( 0.0000,  0.0000,  0.0000)
  35 H      7.817538    7.935426    3.054915    ( 0.0000,  0.0000,  0.0000)
  36 H      7.186705    9.572698    3.053156    ( 0.0000,  0.0000,  0.0000)
  37 H      3.102799   10.638024    3.088213    ( 0.0000,  0.0000,  0.0000)
  38 H      5.074174    9.570822    3.077744    ( 0.0000,  0.0000,  0.0000)
  39 H      4.440322    7.935931    3.059919    ( 0.0000,  0.0000,  0.0000)
  40 H      1.761597    7.943738    3.063072    ( 0.0000,  0.0000,  0.0000)
  41 H      1.111310    9.568031    3.076030    ( 0.0000,  0.0000,  0.0000)
  42 H      9.186021    4.692990    3.031392    ( 0.0000,  0.0000,  0.0000)
  43 H     11.177912    3.578542    3.050605    ( 0.0000,  0.0000,  0.0000)
  44 H     10.472407    1.971940    3.036973    ( 0.0000,  0.0000,  0.0000)
  45 H      7.879332    1.978892    3.043286    ( 0.0000,  0.0000,  0.0000)
  46 H      7.189351    3.595652    3.050038    ( 0.0000,  0.0000,  0.0000)
  47 H      3.071137    4.692662    3.015979    ( 0.0000,  0.0000,  0.0000)
  48 H      5.067803    3.595917    3.051886    ( 0.0000,  0.0000,  0.0000)
  49 H      4.379213    1.980807    3.126998    ( 0.0000,  0.0000,  0.0000)
  50 H      1.783553    1.973616    3.130699    ( 0.0000,  0.0000,  0.0000)
  51 H      1.079532    3.578842    3.052655    ( 0.0000,  0.0000,  0.0000)
  52 I      0.234650    9.156045   -0.168976    ( 0.0000,  0.0000,  0.0000)
  53 I      0.028266    3.053230    0.053337    ( 0.0000,  0.0000,  0.0000)
  54 I      6.070737    3.068557    0.014288    ( 0.0000,  0.0000,  0.0000)
  55 I      0.186293    9.165972    6.290153    ( 0.0000,  0.0000,  0.0000)
  56 I      0.001225    3.032217    6.082165    ( 0.0000,  0.0000,  0.0000)
  57 I      6.176593    3.036368    6.114547    ( 0.0000,  0.0000,  0.0000)
  58 I      9.186283   -0.006023    0.019701    ( 0.0000,  0.0000,  0.0000)
  59 I      3.099100   -0.067573    6.169805    ( 0.0000,  0.0000,  0.0000)
[...]
  74 N      8.000779    8.957333    3.074094    ( 0.0000,  0.0000,  0.0000)
  75 N      4.259565    8.955340    3.069519    ( 0.0000,  0.0000,  0.0000)
  76 N      1.921795    8.959680    3.065965    ( 0.0000,  0.0000,  0.0000)
  77 N     10.349982    2.986310    3.066494    ( 0.0000,  0.0000,  0.0000)
  78 N      8.026035    2.998725    3.060350    ( 0.0000,  0.0000,  0.0000)
  79 N      4.231751    2.998939    3.073217    ( 0.0000,  0.0000,  0.0000)
  80 N      1.907735    2.986858    3.070476    ( 0.0000,  0.0000,  0.0000)
  81 Pb     0.228959   -0.001583   -0.016742    ( 0.0000,  0.0000,  0.0000)
  82 Pb     5.986781   -0.215013   -0.015751    ( 0.0000,  0.0000,  0.0000)
  83 Pb    -0.041797    6.139530    0.070441    ( 0.0000,  0.0000,  0.0000)
  84 Pb     6.111226    6.184361   -0.026419    ( 0.0000,  0.0000,  0.0000)
  85 Pb    -0.256366   -0.012751    6.149517    ( 0.0000,  0.0000,  0.0000)
  86 Pb     6.259162   -0.172531    6.150713    ( 0.0000,  0.0000,  0.0000)
  87 Pb    -0.005536    6.132519    5.973683    ( 0.0000,  0.0000,  0.0000)
  88 Pb     6.132717    6.270566    6.191426    ( 0.0000,  0.0000,  0.0000)

Unit cell:
           periodic     x           y           z      points  spacing
  1. axis:    yes   12.257188    0.000000    0.000000    75     0.1634
  2. axis:    yes    0.000000   12.257188    0.000000    75     0.1634
  3. axis:    yes    0.000000    0.000000   12.257188    75     0.1634

  Lengths:  12.257188  12.257188  12.257188
  Angles:   90.000000  90.000000  90.000000

Effective grid spacing dv^(1/3) = 0.1634

                     log10-error:    total        iterations:
           time      wfs    density  energy       poisson
iter:   1  11:35:49  -1.32         -411.967298
iter:   2  11:48:50  -2.44  -2.10  -411.923026
iter:   3  12:01:52  -2.49  -2.13  -411.741950
iter:   4  12:14:53  -3.66  -2.38  -411.741328
iter:   5  12:27:54  -3.40  -2.40  -411.733059
iter:   6  12:40:54  -3.36  -2.67  -411.723751
iter:   7  12:53:54  -4.30  -2.84  -411.720288
iter:   8  13:06:54  -4.59  -2.99  -411.719764
iter:   9  13:19:54  -5.33  -3.31  -411.719783
iter:  10  13:32:53  -5.22  -3.40  -411.719533
iter:  11  13:45:53  -6.24  -3.78  -411.719523
iter:  12  13:58:53  -6.37  -3.80  -411.719520
iter:  13  14:11:53  -6.14  -3.94  -411.719537